LAMMPS (15 Apr 2020)
Processor partition = 0
  using 1 OpenMP thread(s) per MPI task
package omp 0
using multi-threaded neighbor list subroutines
echo both

include		in.partitions
variable        pid world 0
include		in.temp
variable	temperature equal 300.0
variable	tempDamp equal 100.0
include		in.pressure
variable        pressure equal 10000.
variable        pressureDamp equal 1000.0 # This is 1 ps
include		in.seed
variable        seed world 745823

units		real
atom_style	full
include		in.box
read_data       iceVI.data
  triclinic box = (0.002798 0.002798 0.008814) to (24.7272 24.7272 22.8012) with tilt (0 0 0)
  2 by 2 by 2 MPI processor grid
  reading atoms ...
  1920 atoms
  scanning bonds ...
  2 = max bonds/atom
  scanning angles ...
  1 = max angles/atom
  reading bonds ...
  1280 bonds
  reading angles ...
  640 angles
  2 = max # of 1-2 neighbors
  1 = max # of 1-3 neighbors
  1 = max # of 1-4 neighbors
  2 = max # of special neighbors
  special bonds CPU = 0.00147171 secs
  read_data CPU = 0.0403514 secs
include 	in.setup
variable	out_freq equal 500
variable	out_freq2 equal 500

timestep	2.0

neigh_modify    delay 7 every 1

include		in.tip4p
# This is TIP4P/Ice

# create groups ###
group ox type 2
640 atoms in group ox
group hy type 1
1280 atoms in group hy

# set charges - beside manually ###
set group ox charge -1.1794
  640 settings made for charge
set group hy charge 0.5897
  1280 settings made for charge

# ### TIP3P Potential Parameters ###
pair_style lj/cut/tip4p/long 2 1 1 1 0.1577 8.5
pair_coeff 1 1*2 0.000 0.000
pair_coeff 2 2 0.21084 3.1668
bond_style  harmonic
bond_coeff  1 450 0.9572
angle_style harmonic
angle_coeff 1 55 104.52
kspace_style pppm/tip4p 1.0e-5
pair_modify tail yes

thermo          ${out_freq}
thermo          500
thermo_style 	custom step temp pe etotal epair emol press lx ly lz xy xz yz vol pxx pyy pzz pxy pxz pyz

restart 	${out_freq} restart.lmp.${pid} restart2.lmp.${pid}
restart 	500 restart.lmp.${pid} restart2.lmp.${pid}
restart 	500 restart.lmp.0 restart2.lmp.${pid}
restart 	500 restart.lmp.0 restart2.lmp.0


include         in.dump
dump            myDump all atom ${out_freq2} dump.water.${pid}
dump            myDump all atom 500 dump.water.${pid}
dump            myDump all atom 500 dump.water.0
dump            myDump2 all dcd ${out_freq2} dump.dcd
dump            myDump2 all dcd 500 dump.dcd
dump_modify     myDump append yes
dump_modify     myDump2 append yes


timer           timeout 00:55:00 every 1000
New timer settings: style=normal  mode=nosync  timeout=00:55:00

fix 		1 all shake 1e-6 200 0 b 1 a 1
  0 = # of size 2 clusters
  0 = # of size 3 clusters
  0 = # of size 4 clusters
  640 = # of frozen angles
  find clusters CPU = 0.000445087 secs
fix             2 all nph tri ${pressure} ${pressure} ${pressureDamp}
fix             2 all nph tri 10000 ${pressure} ${pressureDamp}
fix             2 all nph tri 10000 10000 ${pressureDamp}
fix             2 all nph tri 10000 10000 1000
fix             3 all temp/csvr ${temperature} ${temperature} ${tempDamp} ${seed}
fix             3 all temp/csvr 300 ${temperature} ${tempDamp} ${seed}
fix             3 all temp/csvr 300 300 ${tempDamp} ${seed}
fix             3 all temp/csvr 300 300 100 ${seed}
fix             3 all temp/csvr 300 300 100 745823
velocity 	all create ${temperature} ${seed} dist gaussian
velocity 	all create 300 ${seed} dist gaussian
velocity 	all create 300 745823 dist gaussian

run             500000
PPPM initialization ...
  extracting TIP4P info from pair style
  using 12-bit tables for long-range coulomb (src/kspace.cpp:332)
  G vector (1/distance) = 0.375145
  grid = 30 30 30
  stencil order = 5
  estimated absolute RMS force accuracy = 0.00319074
  estimated relative force accuracy = 9.60881e-06
  using double precision FFTW3
  3d grid and FFT values/proc = 11616 3600
Last active /omp style is kspace_style pppm/tip4p/omp
Neighbor list info ...
  update every 1 steps, delay 7 steps, check yes
  max neighbors/atom: 2000, page size: 100000
  master list distance cutoff = 10.8154
  ghost atom cutoff = 10.8154
  binsize = 5.4077, bins = 5 5 5
  1 neighbor lists, perpetual/occasional/extra = 1 0 0
  (1) pair lj/cut/tip4p/long/omp, perpetual
      attributes: half, newton on, omp
      pair build: half/bin/newton/tri/omp
      stencil: half/bin/3d/newton/tri
      bin: standard
Per MPI rank memory allocation (min/avg/max) = 10.39 | 10.41 | 10.42 Mbytes
Step Temp PotEng TotEng E_pair E_mol Press Lx Ly Lz Xy Xz Yz Volume Pxx Pyy Pzz Pxy Pxz Pyz 
       0          300    -9504.372   -8360.6352    -9504.372            0    8088.3238    24.724405    24.724405    22.792372            0            0            0     13932.89    12893.805    11538.999   -167.83276   -1165.1485   -558.96604    1416.3458 
     500    295.29027   -8888.6824   -7762.9012   -8888.6824            0    9755.2745    24.948922    25.057158    23.004789   -0.2466926  -0.25296008 0.0016706105    14381.423    9415.4017      10145.1    9705.3213   -287.15195    753.71227     420.3319 
    1000    291.47484   -8902.0687   -7790.8337   -8902.0687            0    8200.9609     24.96762    25.023915    23.151731   0.25815062  0.045190438 -0.067044133    14464.914    9092.4357    7660.1975    7850.2496   -1312.7992   -701.89036   -1445.8711 
    1500    302.38335   -8917.1191   -7764.2959   -8917.1191            0     8980.462    25.015292    25.036247    23.072046  -0.33192366  -0.25841732 -0.063336038    14449.769    8309.3973    8444.1908    10187.798    32.969494    808.45815    786.11927 
    2000     302.2103   -8948.0263   -7795.8628   -8948.0263            0    8311.5612     25.12039     24.97892    22.979705   0.16556207   0.13516302 0.0027768144     14419.31    6326.6833    10212.285    8395.7157    291.06242   -215.76831    336.04103 
    2500    309.25302   -8917.3413   -7738.3277   -8917.3413            0    10510.951    25.135915    24.862956    22.934762  -0.19388279  -0.33997688  0.097775674    14333.152     10263.23    11018.252    10251.371    521.65697   -136.05406   -605.59934 
    3000    304.82033    -8941.092   -7778.9779    -8941.092            0    9833.9218    25.105845    24.853698    23.021576 -0.051891789   0.09449108  0.016646245    14364.844    8782.5484    11254.246     9464.971    434.12404    -1328.175    1144.7691 
    3500    298.33088   -8955.6828   -7818.3095   -8955.6828            0    9392.3894    25.029638    24.908357    23.054441 -0.067263129  -0.16741958  0.025441189    14373.226     8351.469    9414.1075    10411.592     281.6087    595.80936   -239.18985 
    4000    293.57089    -8963.653   -7844.4269    -8963.653            0    8100.1209    25.138859    24.963549    23.051131  -0.10069092   0.14904071 -0.018773345    14465.856    6882.5409    9059.8989     8357.923    939.95202   -1388.7633   -97.617243 
    4500    306.97853   -8968.0342   -7797.6921   -8968.0342            0    8640.6192    25.034866    25.064395    22.970067  0.021568289  -0.23479278   0.04638874    14413.344    8850.5073    7534.8732    9536.4771   -784.11899   -197.19732    350.96386 
    5000     293.1283   -8896.1698   -7778.6311   -8896.1698            0    9533.9694    24.960407    25.089828    23.064501  -0.29466385  0.054254011  -0.16740647    14444.197    9912.6149    8884.8926    9804.4006    755.52945    855.73032   -504.14663 
    5500    301.44937   -8998.8816   -7849.6191   -8998.8816            0    9208.4913    24.890758    25.024112     23.09718  0.076052845  -0.16150815  0.078969558     14386.52    10426.486    8482.4329    8716.5553     1056.958    161.25793   -679.87752 
    6000    301.29618   -8898.0929   -7749.4144   -8898.0929            0     10923.23    24.867454    24.967811    23.127275  -0.28544019  -0.04942937   -0.1057742    14359.398    11382.433    11307.788    10079.468    1335.7733   -1260.4369    290.22714 
    6500     300.4705   -8965.5604   -7820.0298   -8965.5604            0    9922.4055    24.985481    25.045609    22.881575   0.10151933 -0.049625354 -0.017164369    14318.754    8928.8069    10012.171    10826.238   -46.473767    1031.1719   -651.65242 
    7000    300.88101   -8948.3261   -7801.2305   -8948.3261            0    11872.512    24.987154    24.973438    22.842213  -0.28499657  -0.20549575  -0.21559243    14253.886    12052.995    11604.298    11960.244    1293.9077    2044.8381    1006.2763 
    7500     302.3121   -8932.1065   -7779.5549   -8932.1065            0    10468.841    24.949255    24.874821    23.093057   0.15914998  0.077496962   0.14622168    14331.741    10871.443    10351.683    10183.396    172.35229   -485.15735    303.47514 
    8000    293.19536   -8929.1124    -7811.318   -8929.1124            0    9575.5897    24.954522    24.821606    23.245848  -0.21383696  -0.27515997 -0.069703941    14398.741    9612.6176    10886.423    8227.7287   -441.57117    707.35604     62.54022 
    8500    296.25434    -8961.741   -7832.2843    -8961.741            0    8223.6045     25.14617      24.9487    23.028216  0.083374209  0.026210739  0.048349994    14447.079    7436.6823    8791.7299    8442.4014   -1067.1823   -378.56485   -133.74754 
    9000    294.99527    -8860.382   -7735.7254    -8860.382            0    10527.294    25.121247    25.005869    22.890463  -0.17932264  -0.11051467 -0.060000473    14379.299    9479.6396    10619.892     11482.35   -584.16167   -85.552391   -536.91161 
    9500    296.50155   -8901.1508   -7770.7516   -8901.1508            0    11500.505    25.016271    24.940486    22.911739   0.16597023 -0.020417708   0.13716965    14295.045    10884.767    11810.558     11806.19    715.45202   -801.48108   -754.91786 
   10000    302.65159   -8901.2055   -7747.3596   -8901.2055            0    10935.498    24.862898    24.877478    23.185178  -0.30366591 -0.044335037  -0.11360848     14340.64    11015.944    11660.993    10129.558   -3.5030719    104.70694    210.78512 
   10500    296.76272   -8864.4424   -7733.0476   -8864.4424            0    10287.181    24.900295    24.990491     23.14395   0.14041093 -0.0034547815  0.026052674      14401.8    11508.958    10635.905    8716.6787   -694.93001   -127.47341   -1167.0325 
   11000    306.02155   -8966.0505   -7799.3568   -8966.0505            0    8327.2112    24.979885    25.129566     22.97332  -0.24900394   -0.1385659 -0.008174093    14421.126    8619.8966    7058.9288    9302.8082   -506.04336     306.9555   -1214.1138 
   11500    301.32799   -8935.9724   -7787.1727   -8935.9724            0     9392.422    24.969277    25.163964    22.889811  0.057599833  0.007179341  0.081139773    14382.264    8855.2156    9141.2664    10180.784   -1004.3048   -1323.3493    575.63624 
   12000    306.72186   -8913.6451   -7744.2815   -8913.6451            0    9419.8944     24.97862      25.0805    23.019676 -0.094721159  -0.17139684 -0.028782227     14421.28    9057.1021    8679.2171    10523.364    1106.2909    42.175025   -614.73382 
   12500    307.70949   -8944.5842   -7771.4553   -8944.5842            0    9023.3926    24.883287    24.962978    23.245969  0.087358417   0.16001072  0.042346751    14439.488    9169.7702    10021.536     7878.872    149.05331   -1115.9587   -753.46223 
   13000    292.71883   -8882.8568   -7766.8791   -8882.8568            0    9965.1389     24.94988    24.982819    23.103848 -0.016834293  -0.16596897 -0.017284602    14401.052    10337.602    9760.6295    9797.1853    186.64846    188.56011     307.9706 
   13500    288.57311   -8945.9793    -7845.807   -8945.9793            0    9248.1839    25.051649    24.957015     23.02165  -0.14905134 -0.059574659  0.066437256    14393.467    9124.9559    9640.3731    8979.2227   -740.58605    699.21713      1316.63 
   14000      299.222   -8988.3029   -7847.5322   -8988.3029            0    8758.9459    25.163828    25.173129    22.714769   0.25602536 -0.0061364955  -0.12244365    14388.722    7773.7531    7876.9884    10626.096   -840.89758   -854.49851   -659.26377 
   14500     288.4427   -8964.2889   -7864.6138   -8964.2889            0    9938.7766    24.982709     25.00166    23.004381 -0.086104438   -0.1198105  0.071586681    14368.748    9859.0322    11130.908    8826.3893   -658.29239     807.0687   -27.115029 
   15000    301.77294   -8941.8344   -7791.3384   -8941.8344            0    10995.978    24.813974    24.896852     23.15236   0.11667078 -0.035579398  -0.04855249    14303.293    11539.332    12493.714    8954.8873    124.02227    1722.9369   -126.78392 
   15500    305.64711   -8950.9492   -7785.6831   -8950.9492            0    11115.364    24.903517    24.911271    23.068355  -0.16714236  -0.26841265  0.051144682    14311.106    11709.737    11147.589    10488.765    355.69074   -322.80808    736.38317 
   16000    306.11999   -8931.9838   -7764.9148   -8931.9838            0    10547.929    25.037958     24.90322    22.992849  0.047953938   0.13304129  0.045615013    14336.634    9896.6746    11762.308    9984.8052    861.54183   -367.44609   -63.673321 
   16500    313.60977   -8946.2849   -7750.6614   -8946.2849            0    10170.818    25.116644    24.899902    22.890648  -0.23846802  -0.40429895 -0.072621703    14315.856    9671.6673    10095.884    10744.902   -1082.0167   -569.83912   -163.15231 
   17000    296.00344   -8901.7804   -7773.2803   -8901.7804            0    11321.013    24.956849     24.95387    22.973736  -0.12055698  0.058624706 -0.009361526    14307.352    11670.305    11144.863    11147.872   -385.26504    167.94931   -385.61383 
   17500    301.03165   -8928.2688   -7780.5989   -8928.2688            0    12110.139    24.941419    24.851903    23.050877  0.095601353  -0.24000863 -0.090495891    14287.895    11908.229    12089.918    12332.271   -788.72989    -465.0979    14.697342 
   18000    299.23346   -8937.0176   -7796.2032   -8937.0176            0    10541.001    24.985942    24.980781    22.981476  -0.27880926  0.026645622  0.031709319    14344.309    10125.951    10444.009    11053.045    246.10004    -84.23987   -857.72392 
   18500    296.68727   -8918.7098   -7787.6026   -8918.7098            0    9385.3821    25.034405    25.096482    22.921807    0.1488483  -0.28116499 -0.0011900036     14401.21    9806.9806     8255.032    10094.134   -191.59412     515.5568   -478.72636 
   19000    295.38586    -8912.849   -7786.7034    -8912.849            0     9917.628    24.893187    25.060433    23.067702  -0.28694901   0.16942627  -0.22049964    14390.418    10131.309    10594.048    9027.5271    224.87192   -1196.7894   -102.30014 
   19500    298.68585   -8924.1573   -7785.4306   -8924.1573            0    9974.0664    24.899091    24.956543    23.181078   0.14257885  -0.23618511  0.054872816    14404.612    8799.2227    10996.816     10126.16   -198.64222   -1218.6606   -474.44465 
   20000    297.62462    -8953.776   -7819.0953    -8953.776            0    9125.9899    24.829176    25.036081    23.143154  -0.45827908   0.17168371  -0.16729738    14386.369    9523.0537    9314.1642    8540.7519    493.68076   -159.16833    1054.0522 
   20500    299.10391    -8922.552   -7782.2315    -8922.552            0    9386.5569    25.004453    25.099629    22.950827   0.08150626  -0.23897607   0.05551731    14403.996    9935.6006    7858.0045    10366.066   -1005.6639   -643.21529    35.143571 
   21000    299.62659   -8955.9058   -7813.5926   -8955.9058            0    10034.884    25.097396    25.110573    22.769539  -0.16553793  0.012607473 -0.024336956    14349.591    8875.9276    9736.9199    11491.805    39.690782    273.18982    1464.6991 
   21500    294.18137   -8972.6029   -7851.0493   -8972.6029            0    10277.061    24.918796    24.972534    23.011317  0.013716835  -0.10438828  0.069018852    14319.609    10389.845    10644.174    9797.1641   -311.46244   -403.34325   -190.96438 
   22000    305.79584   -8923.3291   -7757.4959   -8923.3291            0    10837.472    24.847883    24.875753    23.231501  -0.19724045 -0.072984309  -0.10437237    14359.618    11961.513    10954.815    9596.0896   -114.88792    1501.4663   -170.82332 
   22500     301.2528   -8921.3114   -7772.7984   -8921.3114            0    11334.235    24.981233    24.930461    22.999403 -0.025387707    -0.142301  0.023605012    14323.882    11599.473    11901.247    10501.986    1073.0751    459.52591   -959.42955 
   23000    295.73783   -8972.4764    -7844.989   -8972.4764            0    9445.2031    25.050028    25.001161    22.892877  -0.11392497 -0.076437806 -0.097742349    14337.346    9270.7573    8963.0317     10101.82   -669.24146    683.49126    1708.7575 
   23500     291.9607   -8909.6816   -7796.5942   -8909.6816            0    9703.4625    25.007738    24.946322    23.064159   0.05667159  -0.11820835  0.060708925    14388.601     9160.829    9778.3338    10171.225     351.2581   -434.68045   -2033.0152 
   24000    307.64554   -8880.8502    -7707.965   -8880.8502            0    8819.2892    24.938837    24.997295    23.158334  0.055830779   -0.1128468 -0.068694954    14436.986     9768.097    8359.3039    8330.4668    -260.0994    1409.4849   -238.39006 
   24500    305.42512   -8964.1837   -7799.7638   -8964.1837            0    9700.9003    24.972781    24.929079    23.056831   -0.1514991  -0.19513282  -0.12045168    14353.994    8855.5862    10444.163    9802.9513   -16.661814    51.603769    490.48656 
   25000     291.4078   -8894.0647   -7783.0853   -8894.0647            0    9221.7257    25.068074    25.000963    23.006339    0.3176616  0.049105521  0.015197975    14418.671    9127.2034    9101.8573    9436.1166    -801.3569   -869.53651   -495.96643 
   25500    289.18131   -8926.8612   -7824.3701   -8926.8612            0    9574.7215    24.997371    24.991694    23.011308  -0.26235001  -0.17871777 -0.050674857    14375.777    9653.2123    9829.0986    9241.8538    926.68985    754.04629    270.67757 
   26000    303.35989    -8914.294   -7757.7478    -8914.294            0    9751.6986    24.920503    24.926633    23.146084   0.12052843   0.16864183  0.033196863    14377.982    9859.8654    10318.625    9076.6054    205.12461   -147.26543   -303.07258 
   26500    284.25358   -8945.3059   -7861.6016   -8945.3059            0    10406.397    24.902806    24.942304    23.055856   -0.2597295   -0.2930071  -0.16732119    14320.762    10443.398    9971.9273    10803.866    359.79277     680.6472   -753.96848 
   27000    301.43141   -8930.0615   -7780.8675   -8930.0615            0    10411.775    25.040614    24.984988    22.921762   0.20584603  0.089715978   0.12559036    14340.759     10377.67    9716.7255     11140.93   -94.002215   -276.92428    23.804836 
   27500    306.84255   -8935.5787    -7765.755   -8935.5787            0    10379.018    25.008989    25.060691    22.905973  -0.33577525  -0.23318442  -0.26872715    14356.148     10837.41    10321.597    9978.0489   -466.46714    337.59059    2664.1404 
   28000    293.96035   -8925.8767   -7805.1658   -8925.8767            0    10794.301    25.006082    24.957015    22.976194  0.097315146 -0.042030401    0.2141663    14338.918    10104.026    10768.177    11510.698   -412.09637   -976.76086   -1243.0071 
   28500    298.23555   -8897.7591   -7760.7492   -8897.7591            0    9417.1234    24.839804    24.955375    23.257032  -0.23809313  -0.10215343  -0.20069879    14416.723    9824.3001    10333.544    8093.5264    91.001292    1634.5186   -689.32908 
   29000    293.63189   -8935.9118   -7816.4532   -8935.9118            0    9013.1824    24.976672    25.086454    22.974658   0.07706102  -0.14491836  0.017684924    14395.373    9310.6136    7807.0108    9921.9228    160.24597   -289.85168   -585.22603 
   29500    299.35699   -8901.3917   -7760.1063   -8901.3917            0    10052.043    25.052097    25.041223    22.919039  -0.28980078  -0.23671342   -0.2010611    14377.919    8047.5425     10597.97    11510.618    413.81743    17.189789   -541.17842 
   30000     311.3402   -8944.2591   -7757.2883   -8944.2591            0     8246.118    24.941897    25.034113    23.111973   0.20087757  0.011087785   0.37729437    14431.076    8414.3584    7478.1348    8845.8608    50.662578     15.18195   -1252.4748 
   30500     285.8174   -8923.2267   -7833.5604   -8923.2267            0    10178.391     24.90491    24.953379    23.137879  -0.14899758  -0.11116789  -0.17135204    14379.305    9786.0949    10983.442    9765.6362    335.29542    19.478421    561.84892 
   31000    306.04457   -8905.6781   -7738.8966   -8905.6781            0    7976.6766    24.938442    25.179833    23.134298  0.075404527  -0.11520136   0.32473218    14527.085    10230.416    6863.8827    6835.7309   -670.07119    677.85896   -366.81799 
   31500    297.16276   -8937.3217   -7804.4018   -8937.3217            0    9053.3429    25.007166    25.038111    22.997697  -0.12421056 -0.070350013  -0.22766748    14399.598    8688.7599    9589.2658    8882.0029    149.96055   -653.88173    1548.2527 
   32000    312.00331   -8950.9188   -7761.4199   -8950.9188            0    10362.635    25.014437    24.967023    22.978626 -0.021974724   -0.0367365  0.095384448     14350.98    9861.5684    10136.155     11090.18    438.01026    -1402.724   -314.99524 
   32500    302.21557   -8917.8557   -7765.6721   -8917.8557            0    11143.865    25.024167    24.876066     23.02726  -0.19792965  -0.17058721  -0.15922783    14334.535    10856.065     12054.54    10520.989    357.90983    604.56317    1675.1412 
   33000    307.07054   -8927.8092   -7757.1162   -8927.8092            0    11018.698     25.15963     24.86277    22.923777  0.026958666 -0.028959106  0.084122555    14339.696    9786.1271    11024.195    12245.772   -81.041876   -715.02923   -264.53291 
   33500    294.72838   -8926.4934   -7802.8544   -8926.4934            0    10216.763    25.190659    24.830288    22.962154 -0.026138889   -0.1548341  -0.16331527    14362.628    8811.9618    11502.867     10335.46    305.30033   -658.19927    860.19424 
   34000    292.75307   -8959.0363   -7842.9281   -8959.0363            0    9115.5881    25.081778    24.892808    23.042232 -0.088078935 -0.099862068  0.032785969    14386.553    8814.3954    8630.1344    9902.2343   -531.77476   -812.06983   -236.10199 
   34500    287.32285   -8942.7971   -7847.3913   -8942.7971            0    10788.451    25.114281    24.784185    22.921463  -0.11152306  0.028909107 -0.092819092    14267.167     9964.719    11952.519    10448.113   -1488.2379   -633.77153    538.13881 
   35000    296.56552   -8981.9513   -7851.3083   -8981.9513            0    10676.451    25.065697     24.85944    22.932967 -0.020654949  -0.15773394   0.16776724    14289.972    8789.2122    11622.039    11618.101   -846.73818    1947.1982   -614.59683 
   35500    309.36178   -8942.1686   -7762.7404   -8942.1686            0    10169.409     24.95905    24.989326    22.999822  -0.18287055  -0.10974192  -0.23504696    14345.215    9414.8185    10713.895    10379.512   -386.30198    418.14823    458.36556 
   36000    298.20975   -8942.7199   -7805.8084   -8942.7199            0    8736.5167    24.933508    25.115673    23.028745   0.12031694 0.0091124941   0.23994444    14421.103    10324.889    7558.3514    8326.3097   -472.32862   -581.00287    -924.1062 
   36500     296.9931   -8884.1491    -7751.876   -8884.1491            0      10382.4    24.887346    25.098393    23.019232 -0.063580765  -0.12431689  -0.23442539    14378.558    11967.273    9313.3836    9866.5445    695.94237   -811.16678    824.15279 
   37000    303.07261   -8955.1262   -7799.6752   -8955.1262            0    9194.3836     24.86892    25.154835    23.004509  -0.26871968 -0.059770702   0.14898084    14391.012    10243.528    7076.0761    10263.546    804.01491   -793.06002   -330.27703 
   37500    292.64147   -8895.2729   -7779.5901   -8895.2729            0    10982.211    24.769815    25.075908    23.056504   0.36082832 -0.073168723  -0.15273637    14320.986    11845.083    10186.359    10915.191   -381.28731    770.97562    195.51845 
   38000    307.15002   -8929.4321   -7758.4362   -8929.4321            0     10342.16    24.874565    25.046958    23.040239  -0.37998693  -0.13944809   0.12882355     14354.81    10986.597    8704.4476    11335.434    285.58571    1191.4723    23.560068 
   38500    303.16149   -8933.2327   -7777.4429   -8933.2327            0    8398.7644    25.000283      25.1304    22.945911   0.28341473 -0.037428262  -0.24925511    14416.162    8489.4221    7954.5898    8752.2813    448.17862   -918.77591    855.37921 
   39000      285.722    -8916.909   -7827.6064    -8916.909            0    9335.6417    25.021938    25.002074    23.019433  -0.47882066  -0.15133936   0.25961324    14400.965    9865.6616    8850.7613     9290.502    1991.4895   -320.33623   -631.06365 
   39500    308.84152   -8928.6089   -7751.1642   -8928.6089            0    10530.193    24.953018    24.928522    23.092151   0.17533733  -0.10903002  -0.17222173    14364.285     10936.92    11405.157    9248.5034   -495.29994    2019.1408    410.18951 
   40000    296.39527    -8918.244   -7788.2501    -8918.244            0    11376.128    24.953116    24.822177    23.076026  -0.41919704 -0.060812651   0.32276609    14293.075    11485.794    12278.395    10364.195    1454.4949    311.39735    161.63055 
   40500    297.02663   -8971.2942   -7838.8932   -8971.2942            0    10136.413    24.984995    24.996907    22.955587   0.15160179  -0.12013659  -0.31220018    14336.857    9600.6945    11138.296    9670.2474    45.895342    102.74122    125.03647 
   41000    296.81733   -8974.4363   -7842.8333   -8974.4363            0     10361.73    24.980899    25.035108    22.929789  -0.23359489  -0.11194477   0.25311271    14340.279    10956.222    8753.9372    11375.031      343.252   -49.203579   -434.69082 
   41500    312.02713   -8926.2504   -7736.6606   -8926.2504            0    8271.6058    24.896576    25.076668      23.2018   0.13410935  -0.17830108  -0.18443899    14485.421      8752.22    7596.8858    8465.7117    107.04209     -990.139    755.59801 
   42000    301.67625   -8948.7253   -7798.5978   -8948.7253            0    9098.6552    24.942053    25.050184    23.003514  -0.24034117  0.010484308  0.081047396    14372.665    10123.915     8796.887    8375.1637    552.33121   -903.75553   -405.02706 
   42500    301.87021   -8958.2316   -7807.3646   -8958.2316            0    11416.382    24.918622    24.963803    22.971106   0.17012153  -0.13966916  -0.17934522    14289.489    13289.322    10090.881    10868.943   -527.41914   -157.37318    571.79397 
   43000    312.24602   -8955.5914   -7765.1672   -8955.5914            0    10152.472     24.97721    24.948333    23.029453   -0.2854238 -0.072610449   0.13083114    14350.567    9642.7923    11037.531    9777.0946    1128.3628    1237.5682   -1097.0732 
   43500    308.17919   -8923.0211   -7748.1015   -8923.0211            0    10602.491    24.879594    25.054575    22.984603   0.16607058  -0.17970596  -0.10030272    14327.399    11076.121    10287.406    10443.947   -46.188293    99.979925    629.96961 
   44000     298.9377   -8928.5461   -7788.8593   -8928.5461            0    10806.586    24.864489    25.026155    23.040229  -0.23035953   0.04456402  0.062112334    14337.072     10576.57    10206.523    11636.664    1218.9624   -1890.8846   -32.815094 
   44500    296.34412   -8917.6954   -7787.8964   -8917.6954            0      9538.58    24.914069    25.112589    22.962092  0.053946357 -0.081436312  0.066521799    14366.388    12376.524     6650.344    9588.8719    159.82712   -408.36014    739.91639 
   45000     295.0406   -8997.2573   -7872.4279   -8997.2573            0    9193.9074    24.853924    25.123989    23.027801  -0.27015918 -0.065260151  -0.18081589    14379.243     10303.97    8904.0692    8373.6833    678.01572   -238.41148    1235.7854 
   45500     303.6682   -8962.7637    -7805.042   -8962.7637            0    10203.193    24.935317    25.000144    23.075752  0.055084725 -0.060065104   0.20029947    14385.113    11042.259    9487.4629    10079.857    295.06291   -1714.0333   -976.81858 
   46000    316.66282   -8949.0435   -7741.7804   -8949.0435            0    9739.4736    24.958054    24.961676    23.106051 -0.048343062 -0.075924226  -0.29137189    14394.951    8780.8509    10798.581    9638.9892   -336.89037    240.09186    115.71906 
   46500    294.32155   -8927.8259   -7805.7379   -8927.8259            0    10816.766    24.976059    24.893609    23.025063 -0.055103223 -0.058538193   0.18707697      14315.7    10582.277    10837.987    11030.035    771.85985    315.16943   -582.35463 
   47000    296.35603   -8929.5689   -7799.7246   -8929.5689            0    11509.474    25.124052    24.858535    22.875808   0.15381689   -0.1244012  -0.27362155     14287.02    10708.468    11563.494     12256.46   -441.75166    1583.5069    991.59911 
   47500    304.01422   -8911.1704   -7752.1296   -8911.1704            0    10175.538    25.097079    24.869091    23.042077   -0.2296114 0.0060541559   0.16521809    14381.518    9170.3337    10831.962    10524.318    321.98525    -384.5067   -1655.2927 
   48000     292.7921   -8907.0158   -7790.7588   -8907.0158            0    10007.298    25.080144    24.830994    23.058876   0.15811913  -0.10416234  -0.18563612    14360.259    8149.6554    12263.177    9609.0613   -1014.7572    1106.1805    936.51343 
   48500    294.06491   -8928.7835   -7807.6739   -8928.7835            0    8410.6807    25.135217    24.913336    23.074246  -0.32893824  -0.23676583  0.072120058    14449.142    9834.2699    7425.1359    7972.6361   -21.030938   -456.52959    676.16056 
   49000    298.63021   -8891.2393   -7752.7248   -8891.2393            0    10520.147    25.050819    24.899582    23.039536  0.080504474  0.028595949 -0.095723191    14371.024    9894.6684    11462.669    10203.104    -2119.511   -939.36826    1561.6212 
   49500     306.1952   -8853.4033   -7686.0476   -8853.4033            0    11665.885    25.145715    24.862544    22.955259  -0.41690897  -0.33125618   0.25581032    14351.317    10629.037    11641.818      12726.8    461.77741    1479.1543   -870.13455 
   50000    311.65157   -8921.7753   -7733.6173   -8921.7753            0    11170.415     24.98618     24.83394    23.077132   0.23370441  0.064491053  -0.19630121    14319.482      11707.7    12327.314    9476.2311   -1162.5584   -266.29769    1316.4963 
   50500    303.41176   -8964.3416   -7807.5976   -8964.3416            0    9541.9032     24.97285    24.964557    23.054968   -0.3351435  -0.18693418  0.073201821    14373.301    9539.1345    9247.2965    9839.2784    84.460272    235.57783    -1098.298 
   51000    307.14933   -8945.6655   -7774.6722   -8945.6655            0    9754.6066    25.021743    25.086961    22.908455   0.41251074 -0.077335841  -0.22799198    14380.084    11107.199    7460.5205      10696.1   -846.83326   -193.23478    985.42227 
   51500    301.58571   -8926.7459   -7776.9636   -8926.7459            0     9633.323    24.991127     25.10073      22.9522  -0.13007819 -0.095058057   0.19186737    14397.813    10461.792    8606.4472    9831.7301   -450.07405   -1116.4299   -222.42044 
   52000    290.96295   -8909.2218   -7799.9383   -8909.2218            0    10844.724    24.812907    25.047379    23.077415  0.069511548  0.043537751   -0.1403731    14342.574    12110.144    9875.9437    10548.083    382.73528    409.11491    86.942592 
   52500    305.21007   -8902.7001   -7739.1001   -8902.7001            0    10492.548    24.811168    25.065227    23.103468  0.062860187  -0.19233284   0.14437078     14367.99    12212.123    8806.5648    10458.957   -1190.7708    1510.4304     -682.762 
   53000     299.7623   -8945.6658   -7802.8352   -8945.6658            0    10106.865    24.937566     25.03569    22.961315  -0.17796057   0.10999348  -0.17684919    14335.418    12240.642    8397.7946    9682.1592   -243.47978   -677.74665    2329.1065 
   53500    301.96186   -8934.7253   -7783.5089   -8934.7253            0    10109.704    24.984637    25.091566    22.885302  0.064829836   -0.2688623   0.16363381     14346.88    10595.816    8961.7653    10771.531   -127.07487     95.68698   -1313.6092 
   54000    300.48746   -8916.6563   -7771.0611   -8916.6563            0    9541.4203    24.987443    24.988249    23.104494  -0.21494465 -0.035429634  -0.22872466    14426.271    8956.1912    9601.3135    10066.756    477.62305      1347.25   -435.95134 
   54500    293.31354   -8959.2313   -7840.9863   -8959.2313            0    10428.828    24.951883    24.875835    23.106357   0.12601652 -0.073301373   0.14302616    14342.091    9875.1658    11322.892    10088.427   -995.67442   -1194.3697    2.4609554 
   55000    303.86603   -8908.1451   -7749.6692   -8908.1451            0    10364.347    25.037013    24.903437    23.011539  -0.23572317  -0.19573451 -0.056621694    14347.871    11208.109    9581.0226    10303.909    464.96919   -1562.0386   -405.34214 
   55500    298.59504   -8978.0438   -7839.6633   -8978.0438            0    9412.0348    25.107712    24.881709    22.930825   0.44853655   0.17176686  0.043227587    14325.409    8908.8543    9358.2076    9969.0426   -1263.3902   -1690.4219    155.31022 
   56000    304.16591   -8906.7149   -7747.0957   -8906.7149            0    9272.0005    25.036893    25.014718    23.035028  -0.22796619  -0.22256422  -0.13290655    14426.627    10629.845    8623.2895    8562.8673    768.69698    346.09706     1090.386 
   56500    286.11916   -8919.2129   -7828.3962   -8919.2129            0    8643.5307    24.970045     25.02358    23.091033   0.16790468  -0.01393882  0.091621513      14428.2    8816.0841    8713.3027    8401.2054   -783.26428   -342.96918   -21.895601 
   57000    304.17728    -8956.122   -7796.4594    -8956.122            0    9060.2658    24.928146    25.063161    23.038938  -0.23367078   -0.1511338  -0.16625529    14394.225    10419.462    7511.3143    9250.0212    771.55343   -857.09788   -267.43586 
   57500    294.52192   -8920.2599    -7797.408   -8920.2599            0     9806.731    24.908131    25.010284    23.005076  0.091888616 -0.085437747   0.15730172    14331.229    10668.339    9688.3514    9063.5021   -976.36798    1058.7024   -780.16899 
   58000    297.87598   -8934.1264   -7798.4874   -8934.1264            0    11459.117    24.877238    25.017896    22.953214  -0.30854906 -0.083945115  -0.20892817    14285.533    13812.649    10261.105    10303.598   -204.35811    917.09264    715.93071 
   58500     307.6686   -8920.9501   -7747.9771   -8920.9501            0    11336.097    24.894028    24.988765    22.990356  0.032925476 -0.054889727   0.16860157    14301.634    11158.805    11067.025     11782.46    249.24225    269.42944    -1610.048 
   59000    300.46459   -8932.2004   -7786.6924   -8932.2004            0    10369.671    24.910158    24.951966    23.080873 -0.035909617  -0.13093808 -0.020810239    14346.088    11377.165    10155.459    9576.3883    287.95929     75.38364    1465.7664 
   59500     309.6776   -8931.2186   -7750.5864   -8931.2186            0    9502.8215    24.986851    24.911961     23.20062  -0.31967135   -0.2467261  -0.16875212    14441.723    9612.8378    10326.609    8569.0178    596.37822   -58.932036    1867.0439 
   60000    298.36992   -8986.3033   -7848.7811   -8986.3033            0    9498.5098    25.017691    25.025945    22.971487   0.18263271 -0.044791791  0.042839901    14382.249    8691.6532    9953.6554    9850.2209    159.61524    253.26878    -641.2975 
   60500    283.02221   -8938.2588   -7859.2491   -8938.2588            0    9149.1012    25.036795    25.057987    22.953481  -0.36731325  -0.22027571  -0.12496196    14400.364    9898.6369    8089.5284    9459.1382    1027.0594     -862.881    537.70471 
   61000    297.78829   -8960.1627    -7824.858   -8960.1627            0    8063.4739    24.957444    25.036744    23.121533   0.26376692  -0.09256401   0.26563091    14447.562     7334.849    9797.5812    7057.9914    -96.55769    101.53145    12.092597 
   61500     296.4982   -8856.2046   -7725.8182   -8856.2046            0    9207.5196    25.048318    25.011594    23.044178  -0.39960206  -0.17661843  -0.21354672     14437.14    10171.244     8846.657    8604.6581    512.14542   -494.90468    769.72077 
   62000    306.79169   -8956.6753   -7787.0455   -8956.6753            0    9904.1351    24.973069    25.048186    22.930021   0.35775305   0.10102552   0.22164638    14343.418    11263.927    9216.3315    9232.1468    -850.6956   -883.24251   -647.11274 
   62500    287.63207   -8954.0868   -7857.5022   -8954.0868            0    10025.207      24.9326    25.038466    22.975478  -0.45948652  -0.21163247  -0.34322945    14342.995    11540.716    8429.7975    10105.108    1734.0489    -1001.064   -607.30348 
   63000    316.68054   -8936.0742   -7728.7436   -8936.0742            0     10164.81    24.928787    24.971558    23.091066   0.23111069 0.0048855885   0.23226112    14374.434    10057.934    10720.877    9715.6171    686.23447   -863.19483     277.4755 
   63500    297.63237   -8975.0662   -7840.3559   -8975.0662            0    9822.8689    25.035311     24.90866    23.005755  -0.32264067  -0.15641601  -0.21659646    14346.298    9589.7389    8893.9712    10984.897    1108.5775    547.02939    525.08071 
   64000    299.01826   -8909.4379   -7769.4439   -8909.4379            0    9764.4383      25.0485      24.9764    22.939351   0.42267983  0.011636433   0.23656202    14351.348    9348.6787    9400.1779    10544.458   -1249.6595   -399.43742   -516.52972 
   64500    298.95965   -8965.5048   -7825.7342   -8965.5048            0      9446.12    24.930899    24.997028    23.111222  -0.18171362  -0.13252509  -0.12294033    14402.876    9672.7932    9810.8559    8854.7108   -144.29669    780.66095    855.24712 
   65000    292.97382   -8988.9366   -7871.9867   -8988.9366            0    8348.2569    24.960482    24.966439    23.134301   0.08337721  0.053559435   0.16599108    14416.703    10116.143    7932.1246     6996.503   -403.50307   -541.76512     -822.661 
   65500    290.64969   -8937.1876   -7829.0985   -8937.1876            0    9024.6641    25.060779    25.008782    23.027935  -0.21088315  -0.15132293  -0.17344838    14432.518    10035.808    8088.5219    8949.6627    1095.4297   -316.19647    1222.5074 
   66000    322.50358   -8943.7575   -7714.2268   -8943.7575            0    10081.614    24.993068    24.987429    23.010426  0.064864961 -0.067435496  0.099847537    14370.299    10515.629    9417.3166    10311.896   -470.14623     39.24442   -111.87489 
   66500    305.94513   -8911.0143   -7744.6119   -8911.0143            0    11161.115    25.005494    24.899495    23.079412  -0.26124749  -0.09248212  -0.14315946      14369.8    10311.059    11697.994    11474.291    1291.3527   -616.67574    1626.3921 
   67000    297.27554   -8971.6618   -7838.3118   -8971.6618            0    10217.835    24.913086    24.994602    23.027849   0.18817107 -0.079577263 -0.085478803    14339.273    10991.117    9661.9606    10000.427   -1196.1446   -865.42028    475.91271 
   67500    296.47781   -8925.4745   -7795.1659   -8925.4745            0    9471.2708    25.019314    25.059753    22.930922  -0.25901916  -0.10524783   0.13328892     14377.18    9810.3713    8870.7407    9732.7004   -342.60084   -827.81248    98.689832 
   68000    292.18967   -8945.0079   -7831.0476   -8945.0079            0    9478.2855     25.04056    24.982948    23.030406   0.16849396 -0.036640403  -0.27449257    14407.523    9501.6047     9145.114    9788.1378     41.80614    -1281.013    1567.9547 
   68500    306.46877   -8916.3568   -7747.9581   -8916.3568            0    9742.8056    24.952588    24.949893    23.101721  -0.37277288 -0.036139369   0.14472222    14382.309    10252.631    10255.927    8719.8582    260.65284    685.46422   -336.34419 
   69000    293.44136   -8953.9776   -7835.2453   -8953.9776            0     10895.45    24.966041     25.00079    22.960795   0.21155745  -0.12027226  -0.24701279    14331.457     11788.53    10771.221      10126.6   -1016.2208    204.23504    -636.7005 
   69500    301.82576   -8947.2879   -7796.5905   -8947.2879            0     9705.002     24.95088    25.020459    23.023958  -0.51634057  -0.06720435   0.32711492    14373.453    10553.495    8978.2729    9583.2378    1264.5974    650.02903   -2066.2236 
   70000    294.81379    -8941.498   -7817.5334    -8941.498            0    9681.8851    24.952277    24.975837     23.08543   0.26445998  -0.18312458  -0.27086059    14386.932    11031.925    8653.6917    9360.0383   -1248.6094   -181.49738     227.8307 
   70500    291.17068   -8945.4347   -7835.3592   -8945.4347            0    8980.7194    24.979782    25.098262    22.927831  -0.31709989   0.13615261    0.3196471    14374.583    8866.5784    8450.1902    9625.3897    564.49227    53.451667   -1431.1748 
   71000    296.04526   -8927.5717   -7798.9122   -8927.5717            0    8691.1037    24.965484    25.124223    23.004037   0.12390064  -0.28917982  -0.28539677    14429.015    10393.241    6571.2294    9108.8403    148.29911    886.10348    193.41868 
   71500    302.72183   -8966.8319   -7812.7183   -8966.8319            0    10040.285    24.918356    24.992136    23.064049  -0.24068631 -0.030027474   0.23415606    14363.435    10266.926    10009.394    9844.5361    301.74651   -1487.7405    95.920235 
   72000    299.35456     -8891.66   -7750.3839     -8891.66            0    10009.402    24.935895    25.048073    23.059485   0.26285863 -0.064310342  -0.35081881    14402.865    11516.818    9069.1946    9442.1945   -908.30143    690.36913    1441.9392 
   72500    292.52958   -8963.1482    -7847.892   -8963.1482            0    10084.604    24.984436    24.938515    23.018651 -0.033664294 -0.088065796   0.36777354     14342.34      11111.2    9767.9377    9374.6759    102.79405   -487.46272   -731.73069 
   73000    292.42902   -8981.6274   -7866.7546   -8981.6274            0    11071.311    24.925149    24.898285    23.006183  0.037468815 0.0056387412  -0.31895974    14277.487    11847.122    11051.558    10315.253   -737.98723   -748.70546    335.80653 
   73500    306.82941   -8899.1723   -7729.3986   -8899.1723            0    10836.649    24.931986    24.946022       23.083 -0.075137463  -0.23463294   0.48222349    14356.561    10901.273    10793.707    10814.966    588.44266    28.016873   -1389.8879 
   74000    309.06005   -8932.0122   -7753.7343   -8932.0122            0    11048.463    24.955627    24.876078    23.074793 -0.027081825  0.064961059  -0.42891342    14324.788    10636.781    11359.741    11148.866    397.15189   -1099.9463    1048.0431 
   74500    305.11658   -8942.4809   -7779.2373   -8942.4809            0     9633.982    25.050218    25.026158    22.933122 -0.046159042  -0.11750614   0.26160477     14377.02    8220.4981    10339.673    10341.774   -881.31153    144.85426   -2131.9764 
   75000    310.25087   -8909.9231   -7727.1053   -8909.9231            0    10434.231     25.04341    25.020111    22.901008    0.1293482  -0.08403597  -0.36255857    14349.518     9900.593    9995.4842    11406.615   -666.07649   -536.21139    1476.5724 
   75500    302.53183   -8951.4088   -7798.0195   -8951.4088            0    9899.7216    24.936369    24.973883    22.998701   0.06348035 -0.070537973    0.3843982    14322.624    11264.422    9802.3564    8632.3867    514.79313    41.054517   -48.250719 
   76000    305.92287   -8946.8952   -7780.5777   -8946.8952            0    10662.304    24.888589    24.882658     23.14005  -0.20942861   -0.1129067  -0.27036689      14330.5    11804.823    10712.118    9469.9707    375.20587    1431.1741    705.54167 
   76500    302.92574   -9013.2688   -7858.3778   -9013.2688            0    10220.311    24.904984    24.884249    23.079182    0.2019772 0.0032488752   0.25278298    14303.134    10765.423    9957.7908      9937.72   -866.20705   -913.68898    151.18859 
   77000    294.80013   -8952.8535   -7828.9409   -8952.8535            0    10269.522    24.952563    25.057643    22.943865   -0.5309199  -0.24071554   -0.2889665    14345.707    10724.313    9375.5383    10708.715    1928.4376    692.49824    570.76113 
   77500    302.88452   -8970.4948   -7815.7609   -8970.4948            0    9792.4876    24.963493    25.035432    22.960567   0.29095976  0.045078321   0.13212677    14349.708    9846.2989    9317.5243    10213.639   -19.184989   -53.689666   -1292.8214 
   78000    309.58686   -8931.0783    -7750.792   -8931.0783            0    8267.3591    24.869506    25.027232    23.190352  -0.41939832   -0.2403056  -0.12491016     14434.02    8530.5392    8615.4534    7656.0848    590.32598    1096.8929   -1828.7128 
   78500    290.81243   -8953.7109   -7845.0013   -8953.7109            0    10093.533    24.943005    24.910535    23.095689   0.23342594 -0.086827737  0.045159863    14350.359    9471.5344    11083.926    9725.1384   -369.81439   -275.37936   -825.13766 
   79000    298.52539    -8947.985     -7809.87    -8947.985            0      11039.4    24.988368    24.969939    22.958127 -0.085168637 -0.018848359  -0.11855018    14324.907    10346.866    10560.431    12210.902    255.77612   -945.84792    1205.8184 
   79500    302.65736    -8930.237   -7776.3691    -8930.237            0    9031.6402    25.050278    25.166395    22.821564 -0.032590935   -0.2036827   0.33630988    14387.289    8582.4013    7854.3871    10658.132    751.36656    120.32275   -834.02306 
   80000    294.87484   -8921.3272   -7797.1299   -8921.3272            0    9187.2595    24.987967    24.957877    23.121409  0.027985513 0.0022409653  -0.21853058    14419.588    10227.229    8824.1967    8510.3524    775.36595   -611.16496    1032.3632 
   80500    303.96183   -8953.8812   -7795.0401   -8953.8812            0    10246.347    24.897678    24.867976    23.187494 -0.096614736  -0.17090201  0.088650884     14356.65    11281.547    9702.4375    9755.0551    362.65722    789.83352   -2252.1681 
   81000    311.98435    -8938.714   -7749.2874    -8938.714            0    10807.278    24.898238    24.970151    23.042159 -0.020412884  0.034907488  -0.17853063    14325.604    11272.585    10586.494    10562.755   -1307.1881   -1245.1368    1084.6934 
   81500    294.60457   -8939.0728   -7815.9058   -8939.0728            0    9968.6957    25.008378    25.061003    22.890549 -0.064659197  -0.23954657  0.055203132    14346.309    10111.986    9931.2618    9862.8389   -490.58717    1580.5258    228.63284 
   82000    298.76456   -8940.7705   -7801.7438   -8940.7705            0    10312.792    25.038321    25.046803     22.82205   0.01007331     0.140023 -0.087499557     14312.39    9206.9936    10575.931    11155.451   -654.82161   -201.15366   -659.55296 
   82500    325.61429    -8931.128   -7689.7378    -8931.128            0    10630.879    24.861389    24.914625    23.145535  -0.12442554  -0.37204793  0.066791581    14336.627    11088.453    10539.973     10264.21    506.27827   -309.40555   -1289.4434 
   83000    303.78508   -9000.6835   -7842.5163   -9000.6835            0    11065.834    24.886648     24.90924     23.07906  -0.05738555  0.060391786  -0.10960215    14306.882    11134.641    11392.489    10670.372   -624.37929   -1044.8431    364.47732 
   83500    310.75155   -8953.8446    -7769.118   -8953.8446            0    11240.617     25.02819    24.968911    22.905026 -0.030783365  -0.18234982   0.11562465    14313.961    10185.387    10908.172    12628.292    69.924076    570.24433    124.95041 
   84000    308.13898   -8907.3025   -7732.5361   -8907.3025            0    9719.8043    25.155368    24.933333    22.984379  -0.11257632  0.089129298 -0.085480765    14415.968    9869.2165    8848.0011    10442.195   -289.92491   -141.27443   -194.15458 
   84500    301.56685   -8954.3309   -7804.6205   -8954.3309            0    9570.2968    24.993552      24.8859     23.10416 -0.012282168  -0.17526917  0.070028937    14370.488    8249.5334    10276.803    10184.554   -670.32228    871.05594   -263.71974 
   85000    284.01864   -8901.1983   -7818.3898   -8901.1983            0    9229.4745    25.014848    24.824403    23.206806  -0.32070116  0.069246146  -0.37276296    14410.931    8742.4858    10806.912     8139.026    826.98268    68.116429    1208.1334 
   85500     308.0816   -8883.6499   -7709.1024   -8883.6499            0    10444.886    25.029735    24.958533    23.022999 0.0065541831  -0.26874847   0.34788521    14382.593    9429.4533    10796.347    11108.858    572.52292    1066.8789    -1052.407 
   86000    302.18206   -8936.9005   -7784.8447   -8936.9005            0    9819.6379    25.090596    24.956416    22.951725 -0.048223281 -0.044549095    -0.346197    14371.712    8744.4015    10269.185    10445.327    115.65806    646.93114    1013.9896 
   86500    300.45792   -8965.7594   -7820.2768   -8965.7594            0    10885.787    24.965979    24.883077    22.997815  0.057463053  -0.25573666   0.49539172    14286.942    10209.473    10447.725    12000.161   -105.92326    277.79454   -1113.3664 
   87000    306.46775   -8953.8585   -7785.4637   -8953.8585            0    11013.149    24.913949     24.94285    23.009797  -0.17896488  0.049731261  -0.31263639    14298.861    10846.975    10759.438    11433.033   -1231.1523     7.987177    467.42997 
   87500    308.94812   -8976.6452    -7798.794   -8976.6452            0    9707.4233    24.943833    25.005256    23.014923   0.08497679  -0.11646871   0.18941148    14355.027    9728.2858    9303.2688    10090.715   -606.85514    326.75641    108.55728 
   88000    307.93924    -8904.645   -7730.6402    -8904.645            0    10215.701    25.007654    24.923766    23.029952  -0.19593431 -0.078352527  -0.45502401    14354.221    11120.074    10253.334     9273.695    -202.1272   -542.74414     597.9292 
   88500    291.49814   -8910.2281   -7798.9043   -8910.2281            0    10145.162    25.076292    24.924769     23.01837  0.062105895  -0.13428643   0.28760427     14386.96    9616.3174    9624.7976    11194.372    61.475688    197.51481    -1389.751 
   89000    299.17111   -8995.0786   -7854.5019   -8995.0786            0    10648.351    24.961075    24.896102    23.022187 -0.025119602  -0.11858301  -0.31916839    14306.758    10604.594    10653.252    10687.207    201.87247    178.44548    1141.3301 
   89500    298.02888   -8972.2085   -7835.9865   -8972.2085            0    8806.1646      25.1163    24.939041    22.943033  -0.31922146  -0.13933092   0.33730968    14370.975    7093.6733    9234.0712    10090.749    38.244301   -48.605846    333.63093 
   90000     313.5894   -8972.1486   -7776.6028   -8972.1486            0    9051.9953    24.991217    24.989809      23.0525   0.10002541  -0.12549387  -0.21567805     14396.88    9210.7738    8922.1569    9023.0554   -309.11704    113.05551      624.159 
   90500    307.46293   -8914.7759   -7742.5869   -8914.7759            0    10221.573     24.81109     25.03468    23.128563  -0.35947243   -0.0156308   0.14974865    14366.022    11162.515    9249.7151     10252.49    793.22032   -648.36568   -768.07346 
   91000    297.20256   -8956.3118     -7823.24   -8956.3118            0    11014.315    24.907583    25.089031    22.909708  0.065874632  -0.10571354  -0.10313035     14316.44    10906.534    9473.2048    12663.208    403.75606   -216.83082    1241.7863 
   91500     296.4413    -8946.844   -7816.6746    -8946.844            0    10727.888    24.886287    25.085422     22.91235  -0.44995367 -0.016650639  0.012881349    14303.791     11668.01    9847.7075    10667.945    370.36115   -890.57882    79.560249 
   92000    294.63834   -8897.1216   -7773.8259   -8897.1216            0    10582.655    24.877553    24.978379    23.064272   0.32835279   0.01109503  0.048245968     14332.16    11346.594     10482.21     9919.162   -716.26354   -198.67312    220.18861 
   92500    298.30817   -8963.6921   -7826.4053   -8963.6921            0     10299.13    24.918619    25.019705    22.971963  -0.31301771  -0.10388491  -0.12224814    14322.019    10586.206    10186.491    10124.692   -180.26949   -1163.9527    844.70585 
   93000    296.14919   -8911.1002   -7782.0445   -8911.1002            0    8150.1948    25.066572    25.120123    22.986907   0.36048814 -0.097358513   0.16845535     14474.29    8874.9196    7035.1554    8540.5094   -364.08724    542.50317    -122.4096 
   93500    292.66506   -8948.2218   -7832.4491   -8948.2218            0    9818.6918    24.959774     24.95588    23.062616  -0.12757339 -0.089110498  -0.13173384    14365.545    10287.173    9048.6439    10120.258    239.59296   -547.02716   -1173.5243 
   94000    293.92794   -8921.9078   -7801.3204   -8921.9078            0    10459.935    25.048905    24.746208    23.140965   0.14383264  -0.25283052   0.28859741    14344.285    9720.3308    11346.784    10312.692   -1124.8727    581.55027   -126.39565 
   94500    289.02958   -8954.9311   -7853.0185   -8954.9311            0    9711.9964    25.094131    24.870489     23.00638  0.089301182 -0.059206562  -0.26021994    14358.358    9267.6156    9956.6583    9911.7152   -72.008984    843.52288      371.367 
   95000    283.18513   -8939.7659   -7860.1351   -8939.7659            0    10934.731    25.033319    24.926307    22.910776  -0.21246599   -0.1567573   0.28822736    14296.054     10356.34    10601.755    11846.098    664.52459     712.4054    323.76009 
   95500    300.80192   -8973.5288   -7826.7347   -8973.5288            0    9114.7694    25.008763    25.016752    23.005232   0.15903714 -0.0023624023  -0.17592767    14392.948    9456.7364    8339.5473    9548.0244   -981.34062   -808.41476    1013.2612 
   96000    301.85578   -8945.3539    -7794.542   -8945.3539            0    9241.2203    25.011308    24.947147    23.052374 -0.084268164  -0.12584974   0.14893253    14383.777    9187.1179    9843.4532    8693.0897   -571.53597    420.24362   -920.40299 
   96500    300.42695   -8938.4515   -7793.0869   -8938.4515            0    9932.1121    25.050993    24.839021    23.058024  0.046917312 -0.046125106  -0.22294274    14347.674    9859.6618     10578.68    9357.9943   -1232.8537    313.83192   -781.43063 
   97000    306.82777   -8939.3164    -7769.549   -8939.3164            0    10881.326    25.082773    24.820591    22.965402   -0.1587099  -0.19226626  0.048327769    14297.553    9665.5452    11583.838    11394.596    1124.5386   -35.839321   -109.97979 
   97500     295.3769   -8899.5838   -7773.4723   -8899.5838            0    11826.567    25.028571    24.866402    22.947716   0.24555559 -0.053693126 -0.087773063    14281.982    10415.885    12958.793    12105.023   -944.44061    202.74524   -521.45128 
   98000    297.55365   -8991.4038   -7856.9936   -8991.4038            0    10609.574    25.125811    24.900395    22.896203  -0.46070149  -0.25788028  0.032869294     14324.84    10363.189    9978.1226     11487.41    1405.5142    879.95029   -52.891633 
   98500    297.99027   -8958.2145   -7822.1397   -8958.2145            0     9912.697    24.968113    24.928746    23.059322  0.048343625 -0.010492936 -0.016556266     14352.67    8551.7403    10837.631    10348.719   -170.33125   -672.23807      209.981 
   99000    307.73927   -8954.1019   -7780.8595   -8954.1019            0     9591.399    24.913965    25.084498    23.078555  -0.18842184  -0.28104975    0.1200781    14423.042    10387.599    8699.9918    9686.6061    832.84484    2120.5241    133.71842 
   99500    304.56283   -8871.2995   -7710.1671   -8871.2995            0    10369.347    24.900032    25.015611    23.109709   0.23090614    0.1849734  -0.22105206    14394.795    10888.438    9126.3005    11093.304    926.36448   -1547.0944     84.31769 
  100000    295.88129   -8945.8995   -7817.8651   -8945.8995            0    10261.304    24.930518    25.017769    23.019498  -0.19404769   -0.3543642   0.16171024    14357.397    10679.165    9928.5151    10176.232    91.548071    1464.0894   -987.86658 
  100500    293.78341   -8925.2957   -7805.2594   -8925.2957            0    9521.6138      24.9861    24.986913    23.000622  0.071677467   0.12226747  -0.23639819    14359.875    10015.079    9012.1807     9537.582    -874.3079    117.91881   -1426.0494 
  101000     304.9608   -8954.4434   -7791.7938   -8954.4434            0    10580.317    25.044141    25.033851    22.868907  -0.13930487  -0.38381257   0.36913599    14337.691    9772.2592    10497.946    11470.745   -368.07774    715.18805   -444.95711 
  101500    299.46096   -8941.2296   -7799.5479   -8941.2296            0    9182.4118     25.03629    24.951396    23.077273  -0.09655926   0.14350995  -0.27541525    14416.151    8295.0093    10600.582    8651.6445    282.23672   -792.11673    357.98401 
  102000    306.01969   -8923.5066     -7756.82   -8923.5066            0    9503.9857    24.991591    24.893282    23.122887   0.13780128   -0.3643783   0.32627903    14385.274    9821.6138    10184.127    8506.2165    56.307253    208.72326   -1156.8916 
  102500    296.21546   -8970.5308   -7841.2224   -8970.5308            0    10019.544    25.018941    24.878523    23.047788  -0.24739909   0.21069818  -0.31918205    14345.734    10033.719    10323.972    9700.9395   -124.43862   -404.43785    1178.5188 
  103000    296.81053   -8914.5637   -7782.9866   -8914.5637            0    9757.1787    25.112852    24.938183    22.979551    0.1584553  -0.28070127   0.13323881    14391.378    8006.6192    10343.013    10921.904   -749.17053     524.2202   -1763.8326 
  103500    295.20052   -8946.7607   -7821.3217   -8946.7607            0    9828.2385    25.130999    24.967226    22.930151 -0.073950294   0.10930605 -0.045066206    14387.553    10474.332    8833.0638     10177.32    344.57247    90.731933     282.8995 
  104000    298.06352   -8947.0639   -7810.7098   -8947.0639            0    9946.9416    24.917042    24.869863    23.196709 0.0019905763   -0.4852818 -0.090449951    14374.616    10415.275     9867.201    9558.3485    19.225422    2126.1105    698.52262 
  104500    292.55617    -8937.963   -7822.6054    -8937.963            0    10304.624     24.94076    24.968284    23.037345 -0.032073549   0.11357806  0.078471108    14345.999    11115.383    8509.1365    11289.353    35.502874     190.8896   -1135.2177 
  105000    300.11443   -8918.6381    -7774.465   -8918.6381            0    8773.0295    25.070533    25.075884      22.9897  -0.20200382  -0.39001905  -0.16302703    14452.838    8576.4702    7941.7142    9800.9041   -48.700574    1077.5815    253.59546 
  105500    304.19908   -8890.7007    -7730.955   -8890.7007            0     10572.58    25.042166    25.076445    22.926482   0.13213019   0.21356908   0.22778042    14397.108    11442.556    8355.6183    11919.566    200.56519   -32.052967   -2299.9174 
  106000    296.46665   -8937.7226   -7807.4565   -8937.7226            0     11092.88    24.879632      24.9187    23.086262 -0.048351703  -0.32571288  -0.19372779    14312.745     11974.73    10888.356    10415.553    17.216239    751.37275    87.165697 
  106500    310.44784   -8948.3253   -7764.7565   -8948.3253            0    10286.817    24.854066    24.919375    23.187963 -0.012158543   0.14933159   0.09631681    14361.413    10959.579    10715.355     9185.517    816.86809    241.54599    148.52281 
  107000    301.21138   -8943.4045   -7795.0494   -8943.4045            0    10130.677     24.84936    25.078698    23.081769   -0.1254977  -0.21902753 -0.064422356    14384.318    10879.862    9460.9795    10051.188   -142.16034   -1162.2532    221.57362 
  107500    296.84385   -8918.6549   -7786.9508   -8918.6549            0    10338.599    24.949878     25.03567    22.976378  0.026898666 -0.0011711671  0.020144327    14351.894     9828.544    10146.607    11040.646   -208.07586    252.33336    523.18913 
  108000    300.33718   -8935.5137   -7790.4914   -8935.5137            0    10319.924    25.019077    24.996141     22.95066  -0.14700683  -0.12760125 -0.098975417    14352.892     10976.11    8908.6486    11075.014   -386.78205   -1161.8814   -1131.7375 
  108500    311.04761   -8923.1166   -7737.2613   -8923.1166            0    8478.6492    25.196729    24.873446    23.057989 -0.0015479692  0.055568434  0.044670777    14451.122    7636.9306    10107.337    7691.6798   -1111.1682    -171.9752    229.07973 
  109000    300.87839   -8962.5373   -7815.4517   -8962.5373            0    9028.4442    24.988478    24.942186    23.091754 -0.056760877  -0.26792354 -0.0065856256    14392.335    9088.2492    9438.7236    8558.3598   -553.99349    334.02201    803.51971 
  109500    298.81612     -8964.74   -7825.5167     -8964.74            0     9629.819    24.921968    24.940206    23.078911 -0.014312658  0.070367965 -0.048303685    14344.906    10818.812    9495.0199     8575.625    954.68246   -1160.0372   -968.45838 
  110000    291.69122   -8931.5711   -7819.5111   -8931.5711            0    10527.748    24.861579    25.031442    23.043235  -0.15084434   -0.2471834  0.091253925    14340.294    11504.904    10463.902    9614.4376    1190.4255    1025.6907    414.97927 
  110500    293.95235   -8961.7133   -7841.0329   -8961.7133            0    10709.595    24.900097    25.066497    22.954107 0.0001095135  0.047212142  -0.23537412    14326.994    11532.258    9617.5813    10978.945    457.33144   -269.02676    636.10611 
  111000    299.41988   -8926.9183   -7785.3932   -8926.9183            0     9294.199    25.028424    24.990351    23.022472  -0.14931343  0.028616556   0.39570957    14399.845    9090.4065    8906.3536    9885.8369    -423.7692   -699.17506   -645.29362 
  111500    303.07782   -8912.9142   -7757.4433   -8912.9142            0    10320.076     24.96989    24.975302    23.043506  0.067159773  -0.10765991  -0.24141268    14370.634    10032.116    9239.6436    11688.468    234.07149   -791.45717    386.62838 
  112000    304.89936   -8940.6082   -7778.1928   -8940.6082            0    8433.7321    25.070376    24.975998     23.08454  -0.21559274  -0.18377458   0.37789626    14454.562    8771.6096    8866.5695    7663.0171    354.05538    504.87034   -76.570767 
  112500     300.1736   -8943.3571   -7798.9584   -8943.3571            0    8953.5209    25.080446    24.936414    23.074792   -0.1359753 -0.029177242  -0.38611776    14431.353    9567.5914    8671.9694    8621.0019   -688.57843   -42.371991     162.8458 
  113000     296.4758   -8939.4247   -7809.1237   -8939.4247            0    9206.7247    25.099338    24.965943    22.984462    0.0843028  -0.15288489   0.19224519    14402.722     7609.865    9770.6779    10239.631    125.30079   -500.05976   -27.180359 
  113500    305.31583   -8936.3307   -7772.3275   -8936.3307            0    11036.107     25.21158    24.849712     22.88978  -0.43121544  0.039727053  -0.34025407    14340.459    8091.6618    12798.466    12218.193    350.87494   -1568.5058   -1085.9063 
  114000    322.58051    -8941.588    -7711.764    -8941.588            0    10680.501    24.946706    24.837281    23.122379   0.12367133 -0.031361401  0.068939705    14326.819    11420.884    11204.042    9416.5771   -744.00434    511.15265   -582.80567 
  114500    306.53299   -8945.0465   -7776.4029   -8945.0465            0    11826.262    24.854446    24.930394     23.03808  -0.20136733   -0.1319329  -0.14800131    14275.112    12373.469     12321.83    10783.488   -856.38162   -467.69798    2149.1125 
  115000    314.82786   -8922.6916   -7722.4242   -8922.6916            0    10509.391    24.960168    25.079349    22.912012   0.11807038  -0.10117131    0.1749716     14342.57    9700.4592    9708.6246    12119.091   -489.36018    283.77332    -521.8845 
  115500     302.6156   -8944.1535   -7790.4448   -8944.1535            0    9696.0301    24.969356    25.114995    22.929426   -0.2376575 -0.075743636   -0.2203175    14379.163    9816.4411    8717.1762    10554.473    1041.9399   -876.02843     853.7668 
  116000     292.8678   -8934.2394   -7817.6938   -8934.2394            0     10483.93    24.868746    25.094163    23.028609   0.37057776 -0.097600174   0.30372365    14371.242    13184.109    8758.7552    9508.9274   -1498.1921   -40.223211    -1054.091 
  116500    302.29999    -8896.144   -7743.6386    -8896.144            0    10308.884    24.914999      24.9533    23.189771  -0.32034825 -0.043199136  -0.13104154    14417.346    10858.258    10893.782    9174.6123    1075.9656   -351.69793    1065.1411 
  117000    286.83177   -8957.0641   -7863.5306   -8957.0641            0    9990.6273    24.964945    24.982531    22.983048   0.18130271  -0.16568529 -0.014823623     14334.24    10727.097    9294.5666    9950.2181   -279.71274    99.721756   -372.24123 
  117500     305.0951   -8991.2562   -7828.0945   -8991.2562            0    11240.091    24.946794    25.054961    22.784562  -0.33627932   0.13620926    0.1070731    14241.284    10212.263    11339.825    12168.185    821.62355    230.56517   -1126.6461 
  118000     286.2941   -8955.9461   -7864.4624   -8955.9461            0     10831.48     24.96605    24.926505    22.969973  0.033713862  -0.22929007  0.073226793     14294.59    10358.622    10751.384    11384.435   -880.19681    884.33666    651.68314 
  118500    314.76092    -8952.789   -7752.7769    -8952.789            0    11694.529    24.982735    24.809077    23.018532    -0.169497   0.13786791  -0.23116599    14266.854    11514.098    11859.764    11709.726   -488.19739    1562.8962    428.50635 
  119000    302.76961   -8944.9835   -7790.6877   -8944.9835            0    10774.802    24.983223    24.837924    23.093223 0.0056521728  -0.23973716  0.035261757     14330.07    10479.109    12102.974    9742.3218    544.21936    1108.1558   -390.26382 
  119500    293.71846   -8934.9322   -7815.1435   -8934.9322            0    9658.4619    25.078033    24.947367    23.007647 -0.045896786  0.033415565  -0.14197903    14394.295     10312.91    9417.2116     9245.264   -297.53665   -1587.6231    668.51284 
  120000    288.58457    -8909.011    -7808.795    -8909.011            0    8674.0343    25.054729    24.920343    23.127709 -0.046965434  -0.31051415   0.22463341    14440.304     8227.205     9565.253     8229.645     344.4286    416.57811   -207.91914 
  120500    307.27643   -8938.5509    -7767.073   -8938.5509            0    8445.8441    25.097238    24.900068     23.12915 -0.043999671   0.10622826  -0.18834405    14453.936    9307.0945    8260.6246     7769.813    795.18184   -690.99614    409.86079 
  121000    296.93844   -8949.2138    -7817.149   -8949.2138            0     8894.688    25.119123    24.902974    23.032871 -0.090036995  -0.50836302   0.30569729    14408.002    7343.2813    9334.7409    10006.042   -137.29994    924.87855   -1192.2121 
  121500    305.28379   -8974.8039   -7810.9229   -8974.8039            0    9164.4249    25.067687    24.978176    22.997036 -0.052831559   0.21341963  -0.29636166    14399.482    8456.9565    8971.1014    10065.217   -188.81256   -1160.9132   -703.33878 
  122000    302.10656   -8921.6718   -7769.9038   -8921.6718            0    9262.5981     25.02399    24.978565    23.014452  0.024837396  -0.34298455   0.14306323    14385.491    8719.5605    9808.5093    9259.7246    546.73994    1517.6528    754.74556 
  122500    313.17971   -8914.3899    -7720.406   -8914.3899            0     9421.308    25.110919    24.996947      22.9708  -0.20410486   0.19059658  -0.21328693    14418.687    9062.2192    9644.5682    9557.1365    409.78796   -633.26482   -838.45252 
  123000    300.89928   -8979.1481   -7831.9828   -8979.1481            0    9668.6676    24.986508    24.918398    23.066951 -0.028247636  -0.13127828   0.11864146    14362.031    9702.6029    10763.627    8539.7733   -498.74825    380.90079   -693.90394 
  123500    302.88936   -8937.3954   -7782.6431   -8937.3954            0    10565.003    24.866966     24.89242    23.175881  0.028449801   0.01982923  -0.16294763    14345.846     9525.876    10908.395    11260.739    1189.2849   -735.10419    737.58042 
  124000    306.83378   -8914.6588   -7744.8685   -8914.6588            0    11013.764    24.946759    25.050925    22.964125  -0.19079795  -0.16925643  0.058657323    14351.187    10737.363    11942.269    10361.659    340.81756    1051.1117    1444.3207 
  124500    302.05745   -8940.0516   -7788.4709   -8940.0516            0    10659.478    24.930439    24.983637    23.032542  0.019288145 -0.076466285  -0.10617186    14345.889    9773.6069    11128.314    11076.515   -286.79796   -489.12373    -34.05535 
  125000    313.91584   -8923.5911   -7726.8008   -8923.5911            0    10959.045    24.857075    25.074898    22.962949  -0.13939467 -0.014538963  0.087490956    14312.544    11989.708    9483.5078    11403.921    576.03609   -410.90589   -530.10703 
  125500    297.82228   -8917.9312   -7782.4969   -8917.9312            0    11545.544    24.875811    25.014566    22.976876  0.096067979 -0.080096353 -0.074688272    14297.536    11457.567    11191.042    11988.022   -221.76864    579.00776    -592.7643 
  126000    309.80054   -8974.7896   -7793.6887   -8974.7896            0    10210.622    24.974706    24.964452    22.990739  -0.14716498 -0.071746656   0.07008376    14334.262    10361.423    10789.422    9481.0204    245.60665    733.61025    637.24808 
  126500    297.38251   -8967.7365   -7833.9787   -8967.7365            0     9908.347    25.001878    24.963195    22.968415 -0.0046733539 -0.026722428 -0.094214263    14335.202    10527.414    8495.2006    10702.427   -764.26387    440.00975    446.48752 
  127000    301.75268   -8924.3887   -7773.9699   -8924.3887            0    9765.9473    25.062839    24.955881    23.036117  -0.21168547  -0.10409668  0.046133039     14408.29    9036.7598    10138.793    10122.289    259.49347    1782.7178   -597.08766 
  127500    299.37924   -8928.6448   -7787.2746   -8928.6448            0    9360.2244     24.93632    24.942462    23.175942   0.26405511  -0.11027408   0.12439251    14414.815    10110.973    8953.0838    9016.6162   -602.37279    810.85241   -1610.6899 
  128000    295.47436   -8937.0583   -7810.5752   -8937.0583            0    9503.2746    24.950741    24.935057    23.129388  -0.42652981  -0.15616153  0.018492357    14389.906    10200.807    9591.0501    8717.9669   -388.88206   -694.81625   -128.50518 
  128500    288.60025     -8940.87   -7840.5942     -8940.87            0    9519.5975    25.068383    25.019499    22.935935  0.042996748 -0.062546679  0.081143646    14385.381    9944.6498    7972.6756    10641.467    355.78889   -834.95753     261.3597 
  129000    297.01446    -8911.389   -7779.0345    -8911.389            0    9022.7321     25.07406    25.132333     22.89921 -0.095506602 0.0056948601   -0.1767078    14430.387    8759.8733    8531.7726    9776.5504    488.66378   -145.16068   -1110.4532 
  129500    302.61889   -8903.5684   -7749.8472   -8903.5684            0    9162.7148    24.914379    25.117656     23.09172  0.047254633  0.044696528   0.31308057    14450.586    9768.8795    8347.3845    9371.8803    378.04681    161.60051   -1112.4452 
  130000    286.67572   -8942.9422   -7850.0036   -8942.9422            0    9737.8207    24.919787     24.95102    23.095659   -0.1892639 -0.095249644  -0.22251454    14360.283    10053.524    10457.614    8702.3244    143.39024    1429.6421   -1171.5266 
  130500    296.38843   -8896.1365   -7766.1686   -8896.1365            0    10527.345    24.872648    24.991759     23.02141   0.22977861 0.0021154776   0.38989262    14310.367    12552.134    9746.0802    9283.8208   -1228.1479    627.87886   -1155.5415 
  131000    292.32997   -8937.3535   -7822.8583   -8937.3535            0    11375.536    24.961652    24.983198    22.933797  -0.14607972  -0.17737489  -0.30414041    14302.018    10630.487    11294.883    12201.239    285.81085   -130.97425    -590.4484 
  131500    288.51163   -8949.6925   -7849.7547   -8949.6925            0    9538.3945    24.981192    25.052276     22.99239  0.028560794 -0.053788081   0.24089835    14389.459    9403.5576    8571.3794    10640.246    -321.2881    227.96082    185.56306 
  132000    303.50402   -8950.1424   -7793.0466   -8950.1424            0    8698.2312    25.001964    25.042434    23.075679 -0.015832586  -0.22031238  -0.20563466    14447.914    8507.5668    8265.5944    9321.5325   -313.71318    209.70529    677.90789 
  132500    308.02391   -8911.3438   -7737.0162   -8911.3438            0    9488.6803    24.992465    24.972758    23.126175  -0.07438127 -0.038872996  0.099783842    14433.758    10479.975    9186.5741    8799.4922   -277.16206    553.68189   -546.94804 
  133000     295.7927   -8952.2268   -7824.5301   -8952.2268            0     8449.521    25.050076    24.939959    23.125928 -0.011519009  -0.32999124  -0.31510694    14447.874    7753.1551     8239.223     9356.185   -179.16799    1507.2205    475.46924 
  133500     291.5317   -8950.8051   -7839.3533   -8950.8051            0    9107.6336    25.135754    25.006587    22.896435  0.018224336   0.13264172   0.11896576     14391.77    8947.1589    8967.0533    9408.6885    442.71188    -1790.403   -1172.3058 
  134000    299.02048   -8998.5848   -7858.5824   -8998.5848            0    8432.3308    25.063311    25.045959    22.908365  0.011006595  -0.20267347  -0.15338569    14380.375    8281.6226    8379.0844    8636.2854     323.5364    716.12415    388.98042 
  134500    304.01714   -8955.4708   -7796.4188   -8955.4708            0    9860.7777     24.95828    24.821286    23.224771    -0.148398  0.087100006   0.11667979    14387.667    8579.0199    12225.299    8778.0141    788.56252   -472.82145   -568.71413 
  135000    289.38387   -8970.0566   -7866.7933   -8970.0566            0    9983.4061    24.881093    24.898467    23.157865  0.017660176  -0.14082724  -0.10641671    14346.323     9464.067    9986.3272    10499.824    215.68251   -275.91259    711.69216 
  135500    292.35556   -8943.0076   -7828.4149   -8943.0076            0    9539.1883    25.023317     25.04959    22.983254  -0.23765992 -0.062929618 -0.011479247    14406.451    8305.5138    9470.9091    10841.142    726.95961   -704.37229   -528.01111 
  136000    299.25424   -8928.3941   -7787.5005   -8928.3941            0    9499.9498    25.107315    25.138035    22.795014  0.058563547  -0.11333679  0.034041066     14387.04    10079.721     7786.981    10633.147     -424.092   -266.82164   -1721.9541 
  136500    297.74601   -8897.0954   -7761.9518   -8897.0954            0    9654.4495    25.015831    25.029512    23.021668   -0.1674735  -0.17968182 -0.070728791     14414.65    10849.495    8873.8845    9239.9685    3.5401961    948.69945    391.70793 
  137000    286.41405   -8916.4798   -7824.5388   -8916.4798            0    10944.623    24.984777     24.80701    23.143639  -0.02556124  0.090443339  0.041709765    14344.372    11607.216    10809.488    10417.164    1167.4048   -1346.3669    401.53207 
  137500    321.47892   -8919.1469   -7693.5226   -8919.1469            0    10573.637    25.026969    24.879449    23.091082 -0.037689773  -0.28350632  -0.19981602    14377.828    10019.957    10856.177    10844.776    -689.5236    1271.6009    423.27433 
  138000    295.96375   -8919.3312   -7790.9824   -8919.3312            0    9989.8238    25.065424    24.919188    22.994959  0.021258087   0.22418105   0.33898501    14362.882    8761.2566    10170.753    11037.461    66.035067    922.91849   -725.94954 
  138500    294.12655   -8909.2706    -7787.926   -8909.2706            0    10294.214    25.060042    24.962678     22.96485   -0.1032672  -0.25431008   -0.2233107    14366.024    10187.724    10552.265    10142.654    1054.9717    362.31373   -718.77122 
  139000    297.34473   -8964.3698   -7830.7561   -8964.3698            0    10568.162    24.929775    24.917075    23.005113 -0.028704773   0.10446582   0.11932306    14290.249     10741.15    11257.096    9706.2397   -103.08049   -415.10838   -288.69945 
  139500     305.4133   -8913.0211   -7748.6463   -8913.0211            0    11366.935     24.96814    24.998542    22.901123 -0.087437631  -0.52348997  -0.41761256    14294.128    11236.009     11183.86    11680.935   -342.61561    1520.9071    975.13785 
  140000    300.58376   -8915.7476   -7769.7852   -8915.7476            0    11678.159     24.97488    24.996405    22.965015   0.17179093   0.20261039   0.23210407    14336.651    12293.072    10786.441    11954.962    -1109.134    -1186.644   -634.95229 
  140500    309.03411   -8929.9155   -7751.7365   -8929.9155            0    8664.7158    25.053277    25.012272    23.057924  -0.10085775  -0.44765316  -0.24836704    14449.004    8552.2394    8188.6575    9253.2503    1278.6463    11.657052    448.62375 
  141000    287.02456   -8933.7937   -7839.5252   -8933.7937            0    8606.8586    24.980629    24.983931    23.128145   0.10993675   0.20981699   0.25457649    14434.606    10175.114    7434.0548    8211.4067   -336.84271     -634.148    -12.30703 
  141500     292.2383   -8926.0813   -7811.9356   -8926.0813            0    9068.3826    24.908074    24.952021    23.129744  -0.13826565   -0.3698604  -0.21263023    14375.293    8664.1313    9804.3251    8736.6913   -165.62815    306.22875    1352.3576 
  142000    291.99019   -8960.5418    -7847.342   -8960.5418            0    9819.1701    25.024862    24.986421    22.965259  0.030093909   0.17590944   0.13592399    14359.757    9479.7975    9053.2293    10924.483   -111.05563    365.27961   -1328.0579 
  142500    300.92265   -8919.7626   -7772.5082   -8919.7626            0    9893.3235    25.107923    25.042012    22.896639  -0.23807125  -0.52637863  -0.17588681    14396.328    8799.6751    9665.6927    11214.603    331.38239    604.47471    1334.3495 
  143000    295.35371   -8911.0316   -7785.0085   -8911.0316            0    9783.5168    24.975253    24.968414    23.080267  0.041454888    0.2497939   0.12032766     14392.68    10703.299    9508.1824    9139.0688   -455.08347   -207.58114    -753.2803 
  143500    296.74291    -8923.022   -7791.7027    -8923.022            0    9615.2005    25.055611    24.936306    23.078221 -0.083141225  -0.36687943 -0.065438159    14419.143     10097.71    9958.7185    8789.1735   -1197.8452    1574.4278   -1571.1532 
  144000    297.78099   -8944.0006   -7808.7237   -8944.0006            0    9171.8544    25.020001    24.988905    23.058201    0.1843137   0.15616286 0.0043801888    14416.504    9978.0354     9020.533    8516.9949   -955.61537   -296.20141    891.90326 
  144500    296.82466   -8951.7235   -7820.0925   -8951.7235            0    10334.007    25.040707    24.988077    22.918447  -0.14688113  -0.26308311  -0.18610706    14340.511    11056.661    9661.6127    10283.748    52.747502   -619.41482   -935.13905 
  145000    306.78616   -8903.9158   -7734.3071   -8903.9158            0    9540.5139    25.023148    25.034917    22.978408   -0.0030106  0.024956462   0.16026837     14394.88    10171.887    8677.6549         9772    1340.8916   -79.389188    607.26038 
  145500    293.23372   -8885.0832   -7767.1425   -8885.0832            0    10249.514     24.82754     24.95602    23.195326  0.024654869  -0.31359865  -0.20882937    14371.745    11162.607    10263.888    9322.0472   -769.66735    1469.8485   -227.55247 
  146000    295.70519   -8938.3818   -7811.0187   -8938.3818            0    10219.572     24.88245    25.022399    23.050112  -0.20191974 -0.043417895  0.042494547    14351.428    10619.177    9038.7562    11000.784    483.02824    429.09263    986.98076 
  146500    296.49182     -8909.45    -7779.088     -8909.45            0    10047.766    24.964507    25.062097    22.921984   0.26475874  -0.23910397  -0.18952383    14341.435     10847.33    9597.3779    9698.5909   -307.95342   -193.09882    591.88115 
  147000    302.69788   -8962.6721   -7808.6497   -8962.6721            0    10635.575    25.025504    24.950776    22.955438  -0.23993162  -0.06582299   0.17055223    14333.507    9853.8739    9763.3573    12289.494    -748.1854    639.86365   -285.96497 
  147500    290.50842    -8884.808   -7777.2574    -8884.808            0    10426.398    24.977854    24.965426    23.062495   0.14847064  -0.14351534  -0.23587073    14381.375    11953.021    8928.7455    10397.427   -224.03161   -61.905319    413.02847 
  148000    299.64887   -8996.0815   -7853.6834   -8996.0815            0    9045.8873     24.85297    24.970281    23.151238  -0.26428237  -0.17905857   0.11291585    14367.326    10395.251    8720.0029     8022.408   -461.96003    284.28147    11.299779 
  148500    299.43848     -8933.13    -7791.534     -8933.13            0    9816.4336    24.979843    24.925736     23.12221    0.0816948  0.025021382  -0.10395153    14396.836    9417.9859    10209.988    9821.3273   -320.61023   -1279.1972   -147.36584 
  149000    312.63341   -8981.6016   -7789.7004   -8981.6016            0    8925.0105    25.040602    24.976841    23.024931  -0.24295121 -0.091079452 -0.052947759    14400.601    8051.5015    9283.3431    9440.1869    831.41061    216.11418   -26.719734 
  149500    305.41482   -8955.6062   -7791.2256   -8955.6062            0    10252.183    24.939559    25.084665    22.945658   0.55406475   0.08001421   0.14956314    14354.815    10857.206    9650.9232     10248.42   -902.55642    235.10742    1172.1426 
  150000    296.51096    -8948.404    -7817.969    -8948.404            0    9969.8365    24.989217    24.975062    22.996039  -0.60642898  0.023773136  -0.09068261    14351.995    10665.925    8623.1341     10620.45    558.88129   -997.96146    975.06956 
  150500    291.87457   -8906.2682   -7793.5092   -8906.2682            0    10891.415    25.014688     24.86722    23.047704   0.24978896  -0.16110777  0.049130767    14336.727     11241.57    10982.415    10450.261   -819.11812     1390.325    58.819597 
  151000    306.53318   -8945.5227   -7776.8784   -8945.5227            0    9946.8758    25.174588    24.769247    23.029728  -0.28218583  -0.08137179 -0.080510791    14360.316     9050.413    10616.527    10173.687    669.34633    574.03457   -447.56367 
  151500    298.97768   -8912.2889   -7772.4497   -8912.2889            0    9576.3469    25.154548    24.821104    23.056288  0.049663441  -0.15257184  0.079298805    14395.508    9220.2236    10048.275    9460.5424   -112.44487     955.7538    41.825324 
  152000    291.38974   -8935.6326    -7824.722   -8935.6326            0    8725.4962    25.162145    24.980476    22.942142   -0.2653313  -0.17518034  0.051869196    14420.567     8725.009    9187.1107     8264.369    744.87218   -386.13974    451.90105 
  152500    292.84958   -8962.7241   -7846.2479   -8962.7241            0    8281.4072    25.021633    24.934786    23.123377   0.23289124  -0.14814433   -0.2700197    14426.884    8097.7859    9364.5938    7381.8419   -561.49425    17.036736    1123.1276 
  153000    296.14819   -8911.7803   -7782.7283   -8911.7803            0    9860.4694    24.958698    25.003329    23.096284  -0.17315425  -0.10796811   0.10388352    14413.248    10032.398     9809.221    9739.7896    1066.9592    147.32014     260.5372 
  153500    302.04049   -8953.4157   -7801.8996   -8953.4157            0    9874.9748    24.873241    25.145713     22.95221  0.075674166  -0.17392891  -0.11756464    14355.583     10943.99     7346.488    11334.446    151.14899   -691.04807    227.83598 
  154000    308.41145   -9003.4563   -7827.6512   -9003.4563            0      10383.1     24.89209    25.194015    22.795357  -0.13537936 0.0049456257   0.12956129    14295.691    10970.011    8360.1442    11819.144   -78.772652    37.812951   -2001.2361 
  154500    296.30638   -8975.7334   -7846.0783   -8975.7334            0    10995.681    24.829677    25.048694    22.922052  0.032184859  -0.22933728  -0.20112548    14256.393    12147.403    9705.2836    11134.355    327.01443   -804.93357    756.37258 
  155000    301.32458   -8942.3431   -7793.5564   -8942.3431            0    10832.817    24.878401    24.977868    23.054695 -0.077528932  0.060174955  0.082864512    14326.405    12509.586    9068.2703    10920.594    -345.5374   -845.30327   -1913.0314 
  155500    303.18459   -8945.4074   -7789.5294   -8945.4074            0    10501.739    24.993277    24.962507     22.96799 0.0066812993  -0.49537853  -0.17434454    14329.611    9685.0618    10223.589    11596.567    -540.1911     815.4834    -661.3291 
  156000    290.70077   -9016.1133   -7907.8294   -9016.1133            0    9457.3462    25.020767    24.948086    23.001229 -0.096611432  0.077203557  0.043222267    14357.833    7918.1515    10275.864    10178.023    115.80512    -221.8334   -151.60142 
  156500    298.23338   -8960.7209   -7823.7192   -8960.7209            0    8099.0114     25.11733    24.962975    23.058902   0.11055391  -0.11725443  -0.23874569    14458.007    7130.6655    9267.5248    7898.8439   -585.11792   -560.24128    1384.6437 
  157000    296.53422   -8950.8048   -7820.2811   -8950.8048            0    7794.4415    25.049921     24.96943    23.102508  -0.30388018 -0.021984799   0.19744702    14450.209    7130.1282    7542.3536    8710.8426    407.02866    -74.39283   -730.22262 
  157500    292.23429    -8942.226   -7828.0956    -8942.226            0    9158.2693     25.07492    24.958579    23.029939   0.11043847  -0.13101874  -0.19734807    14412.927    8388.0041     9593.899    9492.9048    21.178052   -813.82721    275.73496 
  158000    311.90334   -8994.8193   -7805.7015   -8994.8193            0    8993.4776    25.159568    24.886446    22.950239  -0.28322502  -0.10723702   0.18552041    14369.884    6647.3176    10671.621    9661.4942    64.262865   -834.08463   -535.29852 
  158500    306.84003   -8906.0084   -7736.1943   -8906.0084            0    10997.095    25.052138    24.849252    23.017083   0.12105873 -0.095089403  -0.14987894    14328.753     10628.36    11741.452    10621.474    187.32279   -96.990385    29.855681 
  159000    299.29593   -8911.9785   -7770.9259   -8911.9785            0     10825.94    25.068785    24.921571    22.957057  -0.32311265 -0.018758636   0.20055176    14342.501     10228.17     10299.09    11950.559    1213.5233   -1191.1172    19.358465 
  159500    301.85634   -8913.8752   -7763.0612   -8913.8752            0    11031.321    24.950342    24.891294    23.053809   0.43127856  -0.18803189  -0.11120441    14317.483    9427.4517    13193.249    10473.262   -778.43623   -824.40449    939.61183 
  160000     296.5499    -8922.428   -7791.8446    -8922.428            0    11253.687    24.935614    24.932667     22.98427  -0.27340464 0.0079325678 -0.019039399    14289.582    10328.251    12000.175    11432.634    396.21335   -515.86931   -399.26709 
  160500    303.60663   -8895.0122   -7737.5252   -8895.0122            0    12177.143    25.051867    24.939576    22.854594   0.10910367  -0.23174877 -0.043624643     14279.16    10123.364    13444.618    12963.447   -611.66845    582.63253    1388.1665 
  161000    303.07141   -9007.3848   -7851.9384   -9007.3848            0    10664.477    24.945349    25.006132    22.866594  -0.14491899  0.093955586  0.010077237    14263.877    10246.838    9905.3419     11841.25    224.06623   -1347.6463    -798.8028 
  161500    297.45395   -8915.5992   -7781.5691   -8915.5992            0      9527.44    24.882096    24.978424     23.15525  0.024365096  -0.32793159  -0.11470697    14391.348    10709.848    9025.3195    8847.1523   -793.52256    68.741513   -190.13519 
  162000    286.79158   -8906.8572   -7813.4769   -8906.8572            0    8865.3097    24.909455    25.138196     23.10525  -0.14492122  0.069605153   0.11513176    14468.017    9790.0259    8015.4665    8790.4368    660.06035    159.67261   -484.71816 
  162500    294.38272    -8915.653   -7793.3318    -8915.653            0    9395.4693    24.968823    25.147254    22.967048   0.08328372  -0.22668471  -0.16599719    14420.948    9543.5916    8020.7685    10622.048   -713.69955   -678.25841    528.84469 
  163000    304.05715   -8945.2237   -7786.0192   -8945.2237            0    10074.997    24.866252    25.203801     22.88761  -0.12538188   0.14645223   0.14873002    14344.216    10654.819    9076.2529    10493.918   -862.39523    608.08253   -1063.9829 
  163500    293.78265   -8957.2727   -7837.2392   -8957.2727            0    9685.1836    24.841131    25.111161     23.04168 -0.073641091  -0.26681718  -0.06750677    14373.161    11410.049    8254.6313    9390.8709    66.111072    667.07904   -614.89268 
  164000    289.07814   -8923.2189   -7821.1212   -8923.2189            0    10694.901    24.881929     24.99072    23.000927  0.070462904   0.12496187 0.0034658911    14302.375     11563.11    9962.5161    10559.076     106.3555   -144.06838   -387.78107 
  164500    308.11836   -8955.2744   -7780.5867   -8955.2744            0    8847.3824    24.927783    24.924984    23.173159  0.009060178  -0.32974412 -0.053025997    14398.054    9017.7224    9595.0628     7929.362   -940.50465     911.1978    243.03205 
  165000    301.46968   -8942.1121   -7792.7722   -8942.1121            0     9829.955    25.111612    24.946747    22.957849  -0.11826314  0.097022349  0.029270955    14382.014     8460.872    10404.927    10624.066    726.92886   -105.77266    100.79116 
  165500     295.6047   -8912.9052   -7785.9252   -8912.9052            0    9637.0857    25.311928    25.005316    22.755058  -0.10180669  -0.19005213  -0.12378379    14402.422    7581.3539    9655.5209    11674.382    424.26229   -168.98548    -958.8193 
  166000    303.27898     -8915.84   -7759.6023     -8915.84            0    10293.848    25.152323    24.869645    22.986273   0.14591363  0.014835626 -0.017982752    14378.589     9889.891    10769.997    10221.656   -292.64637   -989.80735   -849.74411 
  166500    289.85671   -8952.2111   -7847.1451   -8952.2111            0    9006.0003    25.039373    24.839986    23.115869  -0.25484782  -0.21613087  0.011516453    14377.554    7700.0176    10737.861    8580.1224    1150.2031   -729.57949   -1303.4351 
  167000    284.74215   -8961.2387   -7875.6718   -8961.2387            0     9314.392    25.020207     24.77371    23.143669   0.13555581   -0.0326145 -0.061314437    14345.449    9068.0334    11024.253      7850.89    274.97393   -721.78685    200.69208 
  167500    295.83722   -8959.7019   -7831.8355   -8959.7019            0    10591.086    25.057901    24.925786    22.905647  -0.20141633  -0.17844015  0.057621954     14306.59    11571.697    10016.057    10185.504   -300.53971   -223.22736     277.3584 
  168000    306.83282   -8904.4147   -7734.6281   -8904.4147            0    10433.079    25.024558    25.021881    22.888106  0.085612157 -0.058698036 -0.071460561    14331.651    9804.5604    11175.998    10318.677    254.85776   -2608.2746    138.32601 
  168500    293.77334   -8937.6776   -7817.6797   -8937.6776            0    10755.844    24.831847    25.006905    23.095233 -0.034504798  -0.11926121  0.054574641    14341.393    12035.177    10728.587    9503.7684   -1177.9334    983.45431   -185.57431 
  169000     295.7675   -8915.5503   -7787.9498   -8915.5503            0    10258.574    24.854201    25.019554    23.073378  -0.10754661 -0.033945379 -0.047500416    14347.973    11002.354    9478.1258    10295.241     993.6512    520.00117    49.665412 
  169500    300.64122   -8951.9548   -7805.7734   -8951.9548            0    10939.061    24.833687    25.184828    22.896407   0.33701334  -0.10965877 -0.050722502    14320.149    11562.704    9763.1789    11491.299   -898.77718    251.54304   -491.58645 
  170000    306.00879   -8967.5043   -7800.8592   -8967.5043            0    10372.677    24.839399    25.035716    23.014214  -0.34198229  -0.20140345  0.078136176    14311.899    11833.386    9365.6402    9919.0056    820.12399   -1124.7151   -568.43732 
  170500    294.90974   -8984.0405     -7859.71   -8984.0405            0    10896.443    24.894776    24.890503    23.050924   0.22294949  0.029387112  -0.08882809    14283.355    11002.663    11398.692    10287.975   -169.39197   -116.03598    1488.6159 
  171000    301.38522   -8958.3069    -7809.289   -8958.3069            0     10589.93     25.01816    25.004001    22.928001  -0.49739214  -0.15739115  0.006284581    14342.705    9981.4733    10743.385    11044.933    1036.0631   -782.29899   -1180.8016 
  171500    290.66084   -8926.6863   -7818.5546   -8926.6863            0    8899.5696     25.02983    25.002565    23.063399   0.20654289 -0.073810027 -0.052781773    14433.305    8854.9041    8994.2806    8849.5242   -851.02993    96.528164    160.82275 
  172000    300.87055   -8959.8922   -7812.8364   -8959.8922            0    9368.2548    25.037876    24.937287    23.032941  -0.17406509  -0.11753094 -0.028896594    14381.232    10171.433    8304.3404    9628.9907   -525.56741    524.22974    -302.4631 
  172500    306.82581   -8930.7724   -7761.0124   -8930.7724            0    10292.999    25.241531    24.794409    22.902521   0.26976563  -0.22085968 -0.009952091    14333.516    9772.0729    11539.472    9567.4521   -154.59767    667.69619    116.56696 
  173000    298.62633   -8927.8032   -7789.3034   -8927.8032            0    11700.626    25.072437    24.795201    22.979645  -0.15184582  0.047413195 -0.098318384    14285.896    10925.116    12651.945    11524.818    684.49306   -1553.8329   -62.255306 
  173500    317.58789   -8949.3954   -7738.6055   -8949.3954            0     10360.04     25.09151    24.807471    23.086095  0.075184634  -0.32209498 -0.028464442    14370.099     10447.28    10849.515     9783.324   -486.26915    9.3946362   -649.63406 
  174000    298.47041   -8964.7509   -7826.8456   -8964.7509            0    9672.0019    25.106258    24.775614    23.082691  -0.12430378   0.19942252  -0.12209137    14357.964    9052.3034    11139.239     8824.463    271.14384   -1389.9291    1004.2481 
  174500    304.52968   -8876.9609   -7715.9548   -8876.9609            0    10845.788    24.989953    24.985598    23.013821  0.019436089  -0.36838786   0.07310329    14369.575    10671.584    11182.937    10682.844   -195.73765    539.61527   -40.293652 
  175000    303.05043   -8960.0848   -7804.7183   -8960.0848            0    10274.889     24.93651    25.056448    22.950187  -0.16759837    0.2237462  -0.22475253    14339.744    10140.475    10060.352    10623.839    53.951329    -1242.576   -1091.0002 
  175500    299.03819   -9017.3076   -7877.2377   -9017.3076            0    9685.8775    24.852966    25.011964    23.064458  -0.10457532  -0.41625066   0.18471848    14337.363    9928.7375     10602.43    8526.4652    967.87588    1136.5381   -903.94803 
  176000    287.89915   -8930.1036   -7832.5007   -8930.1036            0    10663.056    24.917456    25.035279    22.969105 -0.017696136 -0.038182942  -0.10739172    14328.483    12148.898    9482.8963    10357.373   -1000.6815    -343.1636    1308.5598 
  176500    298.78323   -8933.5234   -7794.4255   -8933.5234            0    9150.6923    24.918449    25.135932    23.025704  -0.11957043  -0.30408112  0.038981253    14422.114    9894.7945    7966.3942    9590.8881    1386.3053    552.70265    110.83792 
  177000    304.05076   -8950.1738   -7790.9936   -8950.1738            0    9765.7621     25.00276     24.95736    23.030681   0.17406073   0.11566895  -0.11417188    14371.211    10203.143    9791.4063    9302.7369   -361.02829   -171.79739    494.26947 
  177500    309.88348   -8984.0488   -7802.6316   -8984.0488            0    9950.3901    25.037831    24.893734    23.009753  -0.16611128  -0.25487659   0.16419442    14341.636    9132.0494     11018.17    9700.9507    163.33378    395.46979   -1694.3068 
  178000    303.67334   -8957.4753   -7799.7341   -8957.4753            0    9049.7149    24.989506    24.845643     23.14857   0.27531352  0.052210142  -0.27581196    14372.492    8837.7613    11017.348    7294.0355   -1332.1947    108.66571     815.0493 
  178500    287.52153   -9012.4834   -7916.3202   -9012.4834            0    10548.916    24.981788    24.907786    22.983118  -0.38093472  -0.29402846   0.12851905    14301.039    9592.4145    10912.571    11141.761     97.20189    452.86766    44.118246 
  179000    292.92823   -8925.4774   -7808.7014   -8925.4774            0    9355.3093    25.099619      24.9915    22.958612   0.35203281   0.10709887  -0.21877719    14401.412    8690.4301    10051.363    9324.1353    -127.0531   -707.40576    640.67811 
  179500    298.24185   -8940.2253   -7803.1913   -8940.2253            0    9445.1551    24.962906     24.94021    23.103619  -0.26376814  -0.16422004   0.20045355    14383.854    10003.599    8630.5335    9701.3323    781.74668    5.1606357   -613.24533 
  180000    297.03472   -8968.3585   -7835.9267   -8968.3585            0     9423.513    24.956832    25.060818    23.019461   0.13946022 -0.0031465545  -0.18049356     14397.26    9727.5882    8533.5787    10009.372    -404.2941   -279.29671    903.03679 
  180500    299.25025   -8933.9843   -7793.1058   -8933.9843            0    8493.9396    24.918443    25.097329    23.097342  -0.43001676  -0.23387807   0.28922185    14444.763    10373.811    6929.5782    8178.4301    1119.8194   -161.11177   -745.08317 
  181000    297.42059    -8941.901   -7807.9981    -8941.901            0    10449.032    24.904056    24.989174    23.058725  0.062773314  0.034261102  -0.11888578    14350.178    11098.773    10028.294    10220.029    466.14007   -314.58311   -1492.5699 
  181500    308.10031   -8950.3255   -7775.7067   -8950.3255            0    11384.985    24.856238    24.943171    23.058243  -0.43887269  -0.30781138  0.092946514    14295.958    11314.375    10685.873    12154.707    1967.3495    736.36787    156.40041 
  182000    291.40857   -8854.1215   -7743.1391   -8854.1215            0    11759.757    24.998786    24.992393    22.904878   0.16286813  0.090617742  -0.17439577    14310.498    12535.618    10789.154    11954.499   -743.18992    951.54028    924.82137 
  182500    296.34476   -8938.3112   -7808.5098   -8938.3112            0    11057.919    25.003016    25.009826     22.89232  -0.15225134  -0.18554348  0.093669986     14315.05     10756.77    9758.0607    12658.927    29.446153   -276.11729   -630.40986 
  183000    309.49799   -8983.8443   -7803.8968   -8983.8443            0    10584.925    24.916622    24.883485    23.055476   0.10566856   0.16634402  -0.20668658    14294.681    11279.109    10635.381    9840.2843   -870.10139    72.799634    923.97172 
  183500    298.52481   -8914.0109   -7775.8982   -8914.0109            0    10237.636    24.910576     24.91997    23.133497  -0.10180092   -0.2886183  0.060025558      14360.6    10807.102    11297.155    8608.6497   -750.43782    424.53029   -2080.5285 
  184000    306.28268   -8959.1457   -7791.4565   -8959.1457            0    10188.498    24.969426    24.927476    23.078588 -0.083762849   0.11483994 -0.009772521    14364.685    9729.4905    11396.356    9439.6461     1187.044    186.67636    625.24012 
  184500    307.10042   -8878.7785   -7707.9716   -8878.7785            0    10365.115    25.065495    24.929196    23.001533 -0.088857603  -0.32754692  -0.12888062    14372.799    9431.7693    10923.037     10740.54    201.71257    1049.2336    334.96526 
  185000    299.92321   -8871.6878   -7728.2438   -8871.6878            0    10320.652    25.128855    24.952742    22.919074  -0.02802202 0.0077379012   0.12663434    14371.035     8595.166    12042.147    10324.644   -107.85278    509.74244   -825.80018 
  185500    307.47778   -8959.3359   -7787.0903   -8959.3359            0    9497.2797    25.042336    24.894611    23.067783 0.0078866422  -0.11101221  -0.28570999    14380.899    8698.7148    9913.4525    9879.6718   -122.07886   -82.794183     1003.409 
  186000    306.14379   -8922.2547   -7755.0949   -8922.2547            0    9246.5669    25.064777     24.97062    23.086001  -0.25118068  0.019283402   0.50684054    14449.136    10106.076    8699.3162    8934.3084    441.33258   -1332.6799     -1059.92 
  186500    295.93802   -8986.9521   -7858.7014   -8986.9521            0    9677.0502    25.013062    24.986095    23.000266  0.075646073  -0.11871331  -0.25821551    14374.677    8761.4534     9262.882    11006.815     256.9374   -620.45207    829.22524 
  187000    295.87597   -8993.2857   -7865.2715   -8993.2857            0    8949.8359    24.958767    25.037816    22.994054   -0.1485624  -0.10216411   0.34534266    14369.283    8709.5496    8474.5639    9665.3943   -1075.0631    910.05625   -612.88762 
  187500    293.18818   -8913.1657   -7795.3986   -8913.1657            0    9484.4382    24.998678    25.025773    22.993089   0.30126015  0.040351367  -0.53318244    14384.735    9884.4627    9044.5471    9524.3048   -328.22354   -525.45493    1428.8766 
  188000    309.24087   -8931.5411   -7752.5739   -8931.5411            0    10793.202    24.915271    24.923111    23.068302  -0.25368548  -0.15861006   0.25199576    14324.633    11132.074    10388.332    10859.199    591.70236    77.350278   -1220.9626 
  188500    304.03866   -8901.1609   -7742.0268   -8901.1609            0    10652.153    25.037672    24.908056     23.01169   0.11425636  -0.08000265  -0.31292461    14351.004    11491.779     9739.834    10724.846    160.02063    1860.8467    43.277867 
  189000    295.95319   -8983.8159   -7855.5073   -8983.8159            0    9711.2792    25.104335    24.942626     22.91023  -0.24901475  -0.16665484    0.4540519    14345.654    9785.3245    9480.0275    9868.4857    138.22431    366.96793   -353.12754 
  189500     296.4616   -8969.2834   -7839.0366   -8969.2834            0    9218.1593    25.014491    24.991531    23.067291  0.062103379  -0.15658205  -0.22385825    14420.527    9210.8359    8459.9204    9983.7215    135.16616    811.86884    616.25058 
  190000    298.86409   -8883.3102    -7743.904   -8883.3102            0    10535.516    24.996561    25.016382    23.016085  -0.25680333  -0.14877007   0.27671373    14392.499    10682.504    10144.979    10779.064    833.21296    223.53384   -953.79976 
  190500    304.22143   -8907.5818    -7747.751   -8907.5818            0    10034.763    24.881687    24.946237    23.162503    0.2346622 -0.052725036  -0.30672014    14377.069    9781.7856    9804.7861    10517.716   -668.64898   -146.47086    530.41436 
  191000     310.4656   -8970.9017   -7787.2652   -8970.9017            0     8642.911    24.982455    25.014047    23.091864  -0.20487789   -0.1180614   0.27565534    14430.389    9312.4251    7723.4115    8892.8965    384.24297   -800.66761    733.03209 
  191500    300.42294   -8937.1535   -7791.8042   -8937.1535            0    9739.0679    24.964722    25.076131    22.966419 -0.0066635754 -0.069880923  -0.22313529    14377.406    10689.772    7701.4561    10825.975   -223.13573   -178.15583    102.31029 
  192000    306.82749   -8926.5951   -7756.8287   -8926.5951            0     10715.52    25.037629    25.033234    22.874641  -0.11735328 -0.053458252   0.23872397    14337.203    9021.6231    11350.168     11774.77    1398.0449   -834.67335   -37.154911 
  192500    301.17831   -8899.3176   -7751.0886   -8899.3176            0    11006.501     25.00152    24.926439    23.039598 -0.072093982 -0.060473157  -0.14482175    14358.251    10124.474    11364.199    11530.829   -1181.2906   -503.18184     1356.015 
  193000    298.23949   -8931.4738   -7794.4488   -8931.4738            0    10927.303     24.90598    24.846723    23.153321 -0.022479657   -0.0326688  0.040205811    14328.015     11040.57    11546.972    10194.366    193.43206   -499.58577    317.42355 
  193500    304.95649    -8905.346   -7742.7128    -8905.346            0    12204.703    24.814539    25.041958    23.017726  -0.15052327  -0.21834556  -0.12822062    14303.322    12648.713    11266.659    12698.737    165.16816    499.48317    2351.5857 
  194000    297.83832   -8945.2767   -7809.7812   -8945.2767            0    9268.7715    24.969312    25.119769    22.931906 -0.018299244 -0.063209021  0.071254533    14383.427    9325.5918    8762.2788    9718.4439   -71.893272    -1044.648   -598.88944 
  194500     296.3502   -8909.9364   -7780.1143   -8909.9364            0    10572.373    24.915995    25.164375    22.906592  -0.17765092 -0.080749554  -0.17104987    14362.329    11950.698    8321.3086    11445.112    901.04935   -297.99081    437.16204 
  195000    290.82277   -8903.0978   -7794.3488   -8903.0978            0    10490.501    24.749479    24.997411    23.193914 -0.0088035261  -0.13419199  0.076627674    14349.446    12171.123    9293.3446    10007.034    191.57283    1079.0824   -1474.5447 
  195500    296.23018   -8860.2378   -7730.8733   -8860.2378            0    10987.496    24.921048    25.024902    23.063435  -0.16060009 -0.045753941 -0.066454069    14383.437    11889.482    9498.5586    11574.448   -98.689981   -651.61257    152.31265 
  196000    301.80558    -8913.276   -7762.6555    -8913.276            0    11304.733    25.024331     24.98038    22.938695  0.055282151 -0.056194168   0.05528876    14339.375    10105.261    11257.665    12551.274   -888.24312   -1061.5007   -140.56964 
  196500    310.46403   -8885.0759   -7701.4454   -8885.0759            0    9730.2898    25.161578    25.023918    22.862411  -0.29816315  -0.13811496  -0.25294463    14395.117    8983.8891    9491.7939    10715.186   -232.33916      1190.79    146.07989 
  197000    298.11529   -8940.1117   -7803.5603   -8940.1117            0    8270.3935    25.032965    25.023211    23.044021  0.060273699  -0.10016273   0.07744444    14434.894    7710.8285    9181.8066    7918.5452    94.749775   -378.28805    913.94432 
  197500    293.27163   -8939.9882    -7821.903   -8939.9882            0    7354.0812    25.054361    25.019145    23.168618  -0.22598312   -0.0412285  -0.15301765    14522.987    7467.3486    7520.0318    7074.8632    166.60627    208.10847    717.90563 
  198000    296.96641    -8911.154   -7778.9826    -8911.154            0    8571.9077    24.985232    24.917616    23.184844    0.1017068  -0.14478904   0.12373225    14434.245    8742.4477    9894.1652    7079.1102    296.73725    291.59933    74.308223 
  198500    294.91687   -8930.5208   -7806.1632   -8930.5208            0    10499.216    25.037267    24.989592     22.94661  -0.16277496  -0.10824329  -0.19144284     14357.03    9533.8555     10522.43    11441.362    426.71091   -1422.0528    407.26246 
  199000    301.87853   -8906.3884   -7755.4898   -8906.3884            0    10964.767    24.981304    25.018496    22.951908  -0.10590091 -0.060851083  0.091807954    14344.819     10985.99     10902.29     11006.02   -388.14935     24.83538   -821.70552 
  199500    320.66617   -8963.8811   -7741.3554   -8963.8811            0    10807.805    24.989695    25.018444    22.912228  -0.16635626  -0.15729699 0.0079518506    14324.801    10766.792    9557.6828     12098.94   -294.62743    272.77136    621.87939 
  200000    305.58066   -8952.4451   -7787.4323   -8952.4451            0    11512.904    24.822754    24.887003    23.093092  0.088671377  0.093224882   -0.0559086     14266.08     12140.19    11150.966    11247.557    37.947091    87.823956    421.72035 
  200500    291.37053   -8950.5584    -7839.721   -8950.5584            0     10478.18    24.899598    24.939347     23.03582  -0.23239522  -0.16053161  0.092531942    14304.777    10682.816    10987.132    9764.5933    1097.8529    724.81629   -1223.2614 
  201000    302.77956   -8901.1742   -7746.8405   -8901.1742            0    10690.907     24.89283    25.087276    22.927323   0.21663479   0.11808091  -0.13156231     14317.96    10981.931    9395.5459    11695.243   -377.59431   -650.72897    856.03636 
  201500    308.55871   -8921.7506   -7745.3841   -8921.7506            0    10124.427    24.989824    25.046037    22.964905  -0.18189236  -0.27768225  0.056687609    14373.643    9913.5831    10330.299    10129.398   -90.928078    895.85878   -695.91231 
  202000    304.30251   -8961.1358   -7800.9959   -8961.1358            0    10538.884    24.960773     24.93536    22.994688   0.13997847   0.10536632 -0.080838304    14312.029    10168.348    10527.761    10920.544    374.88152   -1250.3533   -411.14112 
  202500    301.29449   -8945.7915   -7797.1195   -8945.7915            0    10201.754    25.023967    24.828917    23.093097  -0.17258199  -0.47054871   0.23367781    14348.157    8746.7037    10561.851    11296.707   -794.98981    981.81395    321.09971 
  203000    295.73864   -8982.4206     -7854.93   -8982.4206            0    9629.3499    25.068742    24.900826    23.013961   0.01160757   0.21271225   -0.2012597    14366.059    9510.4396    9918.4172    9459.1929   -331.16491   -764.00545    775.45879 
  203500    304.04892   -8908.8586   -7749.6854   -8908.8586            0    10143.761    25.126884    24.961725    22.944753  -0.25387977   -0.3992955   0.20548921    14391.187    9308.4515    9464.6494    11658.181   -575.05746    1132.0953   -910.65557 
  204000    301.50412   -8919.5448   -7770.0736   -8919.5448            0    10670.507    24.966813    24.884716    23.087288   0.10627767   0.23141688    -0.404335    14343.948     10796.22    10799.905    10415.395   -795.59476   -1358.8256    2223.8028 
  204500    293.95009   -8940.3401   -7819.6683   -8940.3401            0    10265.956    24.970583    24.887046      23.0585  -0.13914786  -0.23756772   0.18441857    14329.567    10319.558    10445.661    10032.651    562.67325    1004.8951    1522.7743 
  205000    296.54339   -8964.3493   -7833.7906   -8964.3493            0    10491.612    24.938732      24.9653    22.984798  0.016857539 -0.0076946986  -0.33195639    14310.403    10098.156    10459.766    10916.914    1107.2743   -1415.3479    2080.3035 
  205500    307.18352    -8917.204   -7746.0803    -8917.204            0    9764.1812    25.011144    25.133705    22.897503 -0.044201731  -0.15888675   0.25589921    14393.891    8442.5933    11002.503    9847.4479    226.66641    282.59611   -1124.9444 
  206000     288.9692   -8984.2593   -7882.5769   -8984.2593            0    10196.542    24.934848    25.033324    22.945896 -0.077546866 -0.023333925  -0.35538605    14322.877    10174.096    8773.9453    11641.584    124.84164   -170.50469    953.18125 
  206500    306.67749   -8896.1227   -7726.9283   -8896.1227            0    10373.597    24.846334    25.015622    23.082523  0.033642179  -0.17618318   0.26618996    14346.862    12104.399    9142.0395    9874.3511    813.76985    205.63259   -407.24739 
  207000    295.78226   -8921.1984   -7793.5415   -8921.1984            0    11188.391    24.846887    25.019755    23.059182  -0.25152481 -0.061099118  -0.20073397    14335.041      11635.9    10490.884    11438.389    378.12623    492.32264    936.96432 
  207500    312.34534   -8988.7374   -7797.9346   -8988.7374            0    10155.391    24.948074    25.033254    22.951122  0.074521027 -0.074615772   0.14010887    14333.698    10268.144    9864.6043    10333.424   -1564.8563     100.9868    -1145.981 
  208000    295.77463   -8922.1343   -7794.5065   -8922.1343            0    9763.7004    25.089168    25.119771    22.864876  -0.26847504  -0.11631198  -0.13684643    14410.226    8912.1194    9350.0089    11028.973     1538.373   -1221.2867    1857.8952 
  208500     289.3005    -8935.085   -7832.1396    -8935.085            0    9604.5831    25.016876    24.948487    23.041815  0.012357768  -0.12001746 -0.0041669875    14381.162    8902.3494     9005.625    10905.775    359.40921     -487.558   -1109.6265 
  209000     296.3748   -8898.9171   -7769.0012   -8898.9171            0    8541.7285      24.9457    25.005092    23.267757  -0.22886945  -0.11990702  0.017812138    14513.718    8311.9517    8395.6371    8917.5968   -699.73321   -139.48566    604.92296 
  209500    293.42112   -8955.4551      -7836.8   -8955.4551            0    7675.3555    25.029966     24.98669    23.145486 0.0097049132  -0.13306553 -0.020952656    14475.557    6804.6332    7974.9425    8246.4908   -1254.5547    363.86425    200.53492 
  210000      293.172   -8899.3852   -7781.6798   -8899.3852            0    9307.5962    25.103144      24.9338     23.00561  -0.17696963 -0.091621244 -0.017225587    14399.597    8121.0178     10411.72    9390.0512   -625.51872    445.48132    435.33531 
  210500     300.8137   -8878.2992   -7731.4602   -8878.2992            0    9084.8853     25.32793    24.892519    22.930752   0.21254936  -0.16301073    0.1620916    14457.288    7537.8372    10062.423    9654.3958   -1484.8924    -268.0894   -412.02138 
  211000    314.08799   -8965.6585   -7768.2118   -8965.6585            0    9365.6483    25.123664    24.904003    22.982075  -0.17487429 -0.010646006  -0.16259241    14379.421    8137.8211    9984.3043    9974.8195   -1080.2973    1528.8848    432.06352 
  211500    295.00666   -8966.8292   -7842.1293   -8966.8292            0     9837.386    24.975688    24.848684    23.124804 0.00062303407  -0.27289807   0.11067245    14351.553    10331.952    10359.785    8820.4211    67.099822    235.07818    -206.1576 
  212000    297.53835   -8940.6668    -7806.315   -8940.6668            0    10558.363    24.912099    24.874245    23.140283  -0.16638284   0.17251269    -0.138246    14339.332    10397.066    10992.427    10285.596    516.91673     -2780.71   -1797.7394 
  212500    302.82593   -8872.1598   -7717.6492   -8872.1598            0    11254.604    24.998917    24.978194    23.001694   0.15902479  -0.31363336  0.029452576    14362.897    11398.951    12023.835    10341.026   -235.80008   -504.71316    595.66911 
  213000    298.15668   -8941.8587   -7805.1494   -8941.8587            0    10502.601    25.060377    25.070237    22.802813  -0.27716341   0.25914728  -0.10389875    14326.314    10123.228    8885.5398    12499.035    1143.5543   -432.04046   -560.37589 
  213500     306.8176    -8930.338   -7760.6094    -8930.338            0    9410.2249    24.997441    24.981549    23.050632   0.10707404  -0.17247647  0.063367804    14394.538     10847.09    8337.9617    9045.6233    327.54633    11.177035    475.12122 
  214000    303.71944   -8920.6543   -7762.7373   -8920.6543            0    10041.671    24.973239    24.842184    23.191762  -0.20149655 0.0065010609  0.020580146    14387.933    10220.189    11225.916     8678.906    298.80284   -225.52672   -54.581898 
  214500    299.99039   -8978.5174   -7834.8172   -8978.5174            0    8913.4991    25.072359    24.894243    23.016303  0.071083994  -0.23779465 -0.060397677    14365.796    8138.4553    9106.7723    9495.2698    529.82714    616.85454   -319.51763 
  215000    298.25199   -8964.2412   -7827.1686   -8964.2412            0    9474.1048     25.11852     24.99523    22.889451  -0.19814923 -0.0062594071 -0.025550677    14370.986    8734.8741    9347.9501     10339.49      249.651   -793.57347   -103.28875 
  215500    301.92034   -8922.1286   -7771.0706   -8922.1286            0    9321.0132    25.018757    24.965396    23.043474 -0.0085908286  -0.20959234   -0.1256565    14393.027    8782.2173    9871.0748    9309.7476   -248.00624     -54.0912     296.2438 
  216000    291.08174   -8963.0325   -7853.2962   -8963.0325            0    10451.541    24.911018    24.883657    23.139891  0.012900381  0.011144665   0.16435398    14343.892    10502.378    10642.428    10209.818    195.18544   -1010.5645    78.418039 
  216500    297.24505   -8933.8195   -7800.5858   -8933.8195            0    11574.969    24.859607    24.977891    23.023003  -0.15280679  -0.15998474  -0.30436463    14295.916    12077.754    11505.036    11142.119    113.71606   -912.81117   -304.50543 
  217000    304.63646   -8905.0112   -7743.5981   -8905.0112            0    11688.313    24.880672    25.070342    22.922969  0.034874497 -0.0011034109   0.26198069    14298.591    12613.218    10377.612    12074.109   -301.04515   -462.02577   -484.22579 
  217500    306.59772   -8942.1663    -7773.276   -8942.1663            0     10640.93    24.974306    25.046586    22.924412  -0.13261047  -0.11619905  -0.23862698    14339.703    10270.667     11417.07    10235.054   -538.91468    513.54863    897.32155 
  218000    306.45244   -8952.8567   -7784.5202   -8952.8567            0    10641.254    24.893207    24.946668     23.06199   0.14988219  0.045277953   0.32872397    14321.555    11871.094    10208.204     9844.464    -423.2809   -1.3195522   -219.74625 
  218500    296.59846   -8872.5006    -7741.732   -8872.5006            0    11533.541    24.846844    24.894144    23.179097 -0.090189649 -0.085524873  -0.28426891    14337.219    12211.528    11718.729    10670.367    320.41527   -372.61202    1165.5424 
  219000    288.31455   -8937.1634   -7837.9768   -8937.1634            0    11070.099    25.023863    24.940941    22.925643  -0.11986472  0.035740807   0.10442372    14308.322     10840.95    11585.151    10784.195    42.325095   -43.408959  -0.72109838 
  219500    291.03555   -8904.0934   -7794.5332   -8904.0934            0     10068.76    25.073117    25.064951    22.856678 -0.0021667806  -0.30149311  -0.15958094    14364.427    9971.5075    9260.4947    10974.277    640.29698    810.46914     155.5683 
  220000    293.78658    -8915.827   -7795.7786    -8915.827            0    9185.4905    24.946132     25.04097    23.085049 -0.058488816  0.099121404   0.14362972    14420.661     8902.279      9802.88    8851.3125    237.93448   -1866.9368    871.74281 
  220500    290.92328   -8962.9446   -7853.8124   -8962.9446            0    9161.5143    24.895383    24.967552    23.179427  0.028219389  -0.28163767 -0.087486775    14407.794    10654.806    8359.6886    8470.0479    -541.0643   -806.87275    690.40698 
  221000    290.10909   -8917.1431   -7811.1149   -8917.1431            0    9652.1564    24.906051    24.982187    23.134122  -0.13306027  0.099843044 -0.036183641    14394.227    10857.356    9530.3549    8568.7579    397.82225   -749.45066    16.723721 
  221500    293.61745   -8964.4997    -7845.096   -8964.4997            0    11529.481    24.915739    24.991338    22.844276  -0.15638451  -0.30238346  0.047407633     14224.62    11964.828    9845.4822    12778.132    757.82233     210.8495   -771.13039 
  222000    300.54399   -8965.5562   -7819.7454   -8965.5562            0    11618.048    24.982885    25.007895    22.867377  0.056381412 -0.005161244 -0.039218214    14286.837    10976.961    11261.833    12615.349    320.50594     272.0827    694.10861 
  222500    302.46123   -8913.1526   -7760.0325   -8913.1526            0    9711.8598    24.979476    25.116078    22.966341  -0.18856034  -0.33654934  0.071675402    14408.771    9861.9347     8160.513    11113.132   -281.07551     1421.291   -35.965905 
  223000    291.58231   -8916.6681   -7805.0233   -8916.6681            0    9965.9634    24.891098    24.897966    23.185014 -0.020799739  0.067990935  -0.14088984    14368.627    10584.003    9443.7582    9870.1287   -671.46211   -642.39911   -482.47929 
  223500    302.52486   -8898.6186   -7745.2559   -8898.6186            0    9733.4887    24.966772    24.879053    23.185994 -0.053312989  -0.29086939    0.1657337    14401.972    10175.717    10286.519    8738.2304    298.47638   -342.72782   -218.80849 
  224000     299.2325    -8846.493   -7705.6823    -8846.493            0    11818.184    24.984222    24.920816    22.992679 -0.037335407   0.18170836  -0.24273845    14315.867     12058.97    11557.355    11838.229    30.877994   -891.56233    776.24114 
  224500    299.84392   -8957.7049   -7814.5631   -8957.7049            0    12001.057    24.986233    24.967217    22.837297  -0.15132574  -0.32457731   0.20551556    14246.744    11330.352    12260.697    12412.123    167.19062     382.6461    -7.756975 
  225000    307.46993   -8980.6129   -7808.3973   -8980.6129            0    10490.066    25.018782    25.013824    22.903692   0.01237789   0.14703641  -0.24899902    14333.484    9928.8403     10250.28    11291.079    669.52102   -768.29169    670.33412 
  225500     308.7067   -8920.0674   -7743.1367   -8920.0674            0    9818.0165    24.906615    24.915758    23.196569  -0.14894421  -0.22813922   0.33485208     14395.03     9744.456    10525.877    9183.7166     705.0015     -829.407   -1528.6231 
  226000    305.42852   -8960.8705   -7796.4377   -8960.8705            0    10288.963    24.896015    24.951206     23.10437  0.045652509 -0.040010768  -0.27714839    14352.102    11520.607    9519.5861    9826.6951    323.48648    155.72186    365.63725 
  226500    286.95491   -8892.2093   -7798.2063   -8892.2093            0    9035.4175    25.032003    25.087263    23.008069  -0.21459169 -0.033204806   0.41070867     14448.71    8364.4317    8535.8601    10205.961    220.40494    770.92816   -675.51108 
  227000    303.00717   -8920.4706   -7765.2691   -8920.4706            0    8398.5558    24.999326    25.192328    22.962519 -0.0077692777    -0.146094  -0.40229515    14461.593    9374.4514    7659.8395    8161.3766    556.20479    -681.7708    1007.9063 
  227500    289.96481   -8942.5817   -7837.1036   -8942.5817            0    9491.0755    24.920951    25.068623    23.036059   -0.1967678  -0.10439018   0.32425486    14391.408     10263.78    8637.4472    9571.9994    582.07984   -760.17348    330.86736 
  228000     299.2112   -8913.9123   -7773.1827   -8913.9123            0    9312.0641    24.933739    25.089998    23.031608   0.12008995 0.0091768066   -0.5344694    14408.285    10827.474    7601.5498    9507.1688   -19.778907   -73.458862    2584.2933 
  228500    297.32949   -8922.4496    -7788.894   -8922.4496            0    10266.279    24.910092    24.978892     23.08059  -0.18645454  -0.20486493   0.26077921    14361.355    9223.3493     11226.51    10348.978   -469.06115   -738.95545   -937.52089 
  229000    298.91553   -8958.1671   -7818.5648   -8958.1671            0     10034.28    25.014173     24.89698    23.021451   0.16816259 -0.034030036  -0.38507949    14337.239    9380.7351    11450.475    9271.6292    -1180.606    180.61043    384.22915 
  229500    301.22678   -8900.1402   -7751.7264   -8900.1402            0    10332.186    25.047127    24.975906    22.983709  -0.35690178  -0.11629362   0.31586821    14378.026    10237.582    9500.0482    11258.929    398.80835    291.24387   -1137.6219 
  230000    285.68306   -8853.2621    -7764.108   -8853.2621            0    9680.8777    25.040008    25.023741    23.027272   0.17887834  -0.16469007  -0.47887777    14428.766    9607.5611    9988.7067    9446.3652   -1037.8918    752.94792    368.30035 
  230500    291.27075    -8898.302   -7787.8451    -8898.302            0    9099.0246    25.015067    24.980012    23.099809  -0.15214311 -0.060150292   0.18754916    14434.531    9795.5578    8996.8395    8504.6767   -294.07749    932.32734   -1246.1344 
  231000    303.27867   -8906.0403   -7749.8037   -8906.0403            0    10831.637    24.991189     24.81156    23.178172   0.30735043 -0.077845494  -0.36116252    14372.098    10797.598    12255.989    9441.3229   -129.15545    272.18409     922.2552 
  231500      292.382   -8915.7166   -7801.0231   -8915.7166            0    11936.372    25.023504     24.83018    23.057372  -0.12288343 -0.067307119    0.1560424    14326.424    11413.361    12932.843    11462.911    235.37125    658.16514   -354.02373 
  232000    302.71343   -8924.4361   -7770.3544   -8924.4361            0    10943.599    25.060638    24.898103    22.977826 -0.073399321  -0.03903954  -0.22098725    14337.298    8810.8758    11294.927    12724.995   -297.31099    33.598182    674.55101 
  232500    311.25168   -8959.1158   -7772.4824   -8959.1158            0    10258.196    25.182697    24.948188    22.796586 -0.039311128  -0.31869736   0.25440041    14322.243    8905.1093    9853.4764    12016.004   -867.58166    50.321129   -705.25112 
  233000    309.19044   -8927.4035   -7748.6285   -8927.4035            0    11719.949    25.026996    24.840104    22.988366  -0.12231337  0.025272453  -0.14660006     14291.25    11101.288    12200.629     11857.93    377.82331    328.34456   -421.97711 
  233500    299.27161    -8929.705   -7788.7451    -8929.705            0    10795.574    24.989602    24.871979    23.101758 -0.023940755  -0.13040098  0.029788743    14358.686    10472.968    10806.093    11107.662    1371.6418    311.72624   -388.36199 
  234000    301.38001   -8903.6531    -7754.655   -8903.6531            0    10650.691    25.100588    24.795998    23.062466  -0.30347327    0.1253996  -0.26455287    14353.943    10356.883    11537.806    10057.384    831.27867   -402.08131     -449.664 
  234500    286.41447   -8892.1078   -7800.1652   -8892.1078            0    9776.3925     25.18088    24.915835    22.918477  0.076637596  -0.20674065   0.15703455    14379.113    8545.7529      11453.4    9330.0243   -151.51341    619.16578    -87.84172 
  235000    293.69097   -8947.5942   -7827.9102   -8947.5942            0    10027.786    25.143065    24.882725    22.914239  -0.22708976  -0.13239488  -0.23168995    14335.789    8978.2678    9612.9296    11492.162   -272.64516    467.67424    1316.1084 
  235500    314.49871   -8939.1249   -7740.1124   -8939.1249            0    11288.456    25.087265     24.88702     22.89038   0.11577656   0.01252202   0.16269787    14291.546     10600.04    10400.957    12864.372   -247.54734   -437.55205   -252.19505 
  236000    300.56693   -8908.7477   -7762.8495   -8908.7477            0    10562.767    25.049679    24.874994    23.017211  -0.20419668 -0.099284546 -0.090609471    14342.269    9523.7845    12695.175    9469.3416   -684.14955   -688.61397    426.12275 
  236500    297.20993   -8916.7897   -7783.6899   -8916.7897            0    11350.919    25.073483    24.862386    22.944689  0.017032217  -0.13149506   0.12522216    14303.412    10858.098    11644.015    11550.644    348.25937   -291.32274    56.279908 
  237000    300.68144   -8958.4185   -7812.0837   -8958.4185            0    9394.1156     25.05873    24.997112    22.950223 -0.0025683996  0.036071208  -0.15332197    14375.926    9345.7935    8923.3361    9913.2172    155.80843   -942.79681   -315.70316 
  237500    288.17731   -8942.8289   -7844.1655   -8942.8289            0    9892.6251    24.965275    25.015143    23.055827 -0.027661874  -0.15557372  0.054134907    14398.593    9880.7492    10415.188    9381.9383   -314.42072   -5.2834284    1691.7845 
  238000    305.14932   -8896.2658   -7732.8974   -8896.2658            0      9330.99     24.95691      25.1044    23.043563  0.053735345   0.10515586  -0.16257996    14437.443    9716.4464    8565.1396     9711.384   -562.45933    234.31177    901.08939 
  238500    291.01198   -8930.6951   -7821.2248   -8930.6951            0    10214.432     24.86091    25.061216     23.04331 -0.0096052167  -0.24808314   0.22634329    14357.011    10203.373    9101.3276    11338.595   -341.14615   -889.68966   -1273.5142 
  239000    301.68397   -8947.0952   -7796.9383   -8947.0952            0    8983.2746    24.992325    25.062424    23.030066 -0.070593173  0.015368963  -0.13928869    14425.302    8618.0008     8869.645    9462.1778   -514.58413   -958.25481     517.4238 
  239500     294.4081   -8927.4478   -7805.0298   -8927.4478            0    8121.0186    24.950174    25.077679    23.154759  0.094956483  -0.22817314  0.098506452    14487.758    7854.4469    7936.0386    8572.5702   -301.63598    583.48755   -482.38795 
  240000     292.5136   -8870.6451   -7755.4499   -8870.6451            0    10437.139    24.832614    25.008579     23.16092  -0.36306892  0.091443574  -0.11416662    14383.589    12263.638    9529.2161    9518.5637   -993.53934   -763.26342    1678.4307 
  240500    323.21771   -8963.5158   -7731.2625   -8963.5158            0    9699.6544    24.909283    25.070546    23.005846   0.18163326  -0.22859123  0.049869411    14366.905    10062.858    10344.544    8691.5614   -271.30559   -346.99022   -2265.9214 
  241000    306.73328    -8940.692   -7771.2849    -8940.692            0    10313.672    24.952931    25.152648    22.888705   -0.2182112  0.056110826 -0.064004277    14365.691    10998.942    8671.2486    11270.825    969.96453   -476.37515    1714.8654 
  241500    298.98334    -8946.371   -7806.5101    -8946.371            0    9429.7614    24.991664    25.051771    23.047162   0.15031258  -0.24688622  0.062613464    14429.493    8112.6469    10380.579    9796.0583    701.98977    1144.3525   -300.82731 
  242000    307.88416   -8920.2011   -7746.4062   -8920.2011            0    11434.382    24.901027    24.872054    23.108174  -0.31196046   0.12646277  -0.23162455    14311.809    11352.138    11181.253    11769.753    389.79508   -1360.2625    951.09513 
  242500     303.8821    -8888.739   -7730.2018    -8888.739            0     10550.41      25.0179    24.928202    23.020323  0.025130021  -0.25511239   0.29416777    14356.654    11611.487    10622.451    9417.2926   -531.24456    463.99902   -943.01582 
  243000    299.85219    -8936.331   -7793.1578    -8936.331            0    10408.192    25.036802    24.926687    22.978401  0.036545764  0.077791926  -0.15545882    14340.465    9381.2932    11703.586    10139.698   -951.11074   -1402.3469     257.1757 
  243500    294.48757   -8945.5504   -7822.8295   -8945.5504            0    9643.4325    25.149113    24.865182    23.023389  -0.24885302  -0.39035086   0.32449698    14397.384    8425.2044    9736.8797    10768.213    697.41429    831.57244   -1384.6371 
  244000    296.13886   -8960.2708   -7831.2544   -8960.2708            0    8323.8553    25.096121    24.848076    23.130591 -0.0095136432  0.016023866  -0.22309969    14424.013    8047.4472    9344.5127    7579.6061     711.4158   -938.73639     864.3303 
  244500    308.52441   -8902.8003   -7726.5645   -8902.8003            0     8657.165    25.122014    25.027739    23.019585  -0.13010055  -0.15810216   0.10219071      14473.5    8245.8974    8876.4432    8849.1543    93.439981    271.16981   -347.27296 
  245000    298.95266    -8921.563   -7781.8191    -8921.563            0    10315.699    25.055716    25.059331    22.892165  0.011036011 -0.062830298 -0.063471783    14373.521    10162.848    10111.661    10672.587   -686.67921   -242.80063   -157.67598 
  245500    288.65429   -8903.1071   -7802.6253   -8903.1071            0    10318.127    24.914147    25.105585    23.014959  -0.14692932  0.063368527 -0.018363921    14395.494    11755.823    8258.6846    10939.873    331.35256    117.49689    626.36285 
  246000    295.63412   -8942.7816   -7815.6895   -8942.7816            0    9350.7189    24.880383    24.973664    23.158126   0.11755198  -0.32401803  -0.05965765    14389.402    9092.8818    10131.733    8827.5414   -1215.5208    1457.3317   -1539.7037 
  246500    297.87612   -8917.7429   -7782.1033   -8917.7429            0    10501.179    24.979597    25.008626    23.013143  -0.14921287   0.17628432 -0.026765822    14376.435    11288.307    9920.2328    10294.996    106.43664    2.9088747   -488.11702 
  247000    308.56104   -8875.1416   -7698.7662   -8875.1416            0    12142.671    24.962331    24.957707    22.987767 -0.071739078  -0.58159766 -0.065524329    14321.437    11865.351    12646.979    11915.683    724.64848    1276.9746   -229.13826 
  247500     293.6662   -8904.6274   -7785.0379   -8904.6274            0    10515.898     25.01599    24.967318    22.990197  0.025889894   0.20377164  0.032214274    14359.267    11336.627    9793.6763     10417.39   -682.30807   -306.46699   -37.406364 
  248000    295.53058   -8958.7924    -7832.095   -8958.7924            0    8952.4037    24.926445    25.022223    23.119704 -0.060084908  -0.44348867  -0.11515546    14420.108    9961.4947    9288.6368    7607.0795   -727.80457    796.67757   -32.969707 
  248500    293.10935   -8938.0973   -7820.6308   -8938.0973            0    8244.6822    25.004908    25.017169    23.062297 -0.086448681   0.32311586   0.13534481    14426.666    9103.6207    7484.4358      8145.99     270.7505   -1145.3046   -65.958778 
  249000     294.6796   -8984.3905   -7860.9375   -8984.3905            0    9696.7616    25.056625    24.970962    22.939923  0.026305803  -0.29102412  -0.16730782    14353.235    9320.3075    9595.5297    10174.448    396.06575    3.8082948    1985.5247 
  249500    290.37624   -8942.1994   -7835.1528   -8942.1994            0    8988.4439    24.997851    25.052454    22.985679  -0.31141238   0.33297966   0.38914902    14394.954    9479.1251    8791.2745     8694.932    1336.2911   -1702.3157    -1241.564 
  250000    303.07564   -8910.3293   -7754.8668   -8910.3293            0    9070.5929    25.000028    24.961329    23.119583 -0.043168785  -0.36902356  -0.29958807    14427.404    7974.4309    9752.2541    9485.0938   -661.85489   -179.16596    1925.6844 
  250500    294.83856   -8926.4769   -7802.4178   -8926.4769            0     8411.508    25.045588    24.995954    23.063648 -0.044629563   0.22612431   0.15506637    14438.728    7340.3368    8792.9596    9101.2275   -52.390213    252.02747    386.94054 
  251000    308.30327   -8966.9595   -7791.5669   -8966.9595            0    8089.9544    25.045433    24.988071    23.076372   -0.2449276  -0.23996849  -0.33710133    14442.049    8290.2151    8425.8829    7553.7652    1270.4305    505.28064    1333.7231 
  251500    299.54562   -8951.0717   -7809.0672   -8951.0717            0    9580.1387    24.999089    24.984561    22.981032   0.14294256  0.027134811   0.15409793    14353.752    10380.745    9466.2834    8893.3871   -1166.4572   -1221.1969   -250.86284 
  252000    305.20799   -8995.4021     -7831.81   -8995.4021            0    8790.5501    25.089321    25.050695    22.915998  -0.40750544  -0.36726862  -0.44511862    14402.817    8070.8278     8304.338    9996.4844    778.44956    520.26617    1851.6609 
  252500    309.88137   -8963.5113   -7782.1022   -8963.5113            0    9644.1561    25.023544    24.977027    23.036993  0.041205999 -0.054279457   0.12102854    14398.437    9984.7605    9478.4187     9469.289   -181.92913   -50.882076    303.41991 
  253000    285.55907   -8908.0067   -7819.3253   -8908.0067            0    10137.804    24.961876    24.896016     23.14467  -0.10080799 -0.055098001  -0.05519843    14383.284    9875.7368    10597.254    9940.4224    89.386357   -90.611222   -487.06462 
  253500    301.26103   -8879.8782   -7731.3338   -8879.8782            0    10299.665    24.916034    25.002083    23.145448   0.15400447  -0.24366967  -0.15037956     14418.52    10097.518    11739.127      9062.35   -467.94673    1.1047154   -1175.8703 
  254000    301.60301   -9000.6018   -7850.7535   -9000.6018            0    9463.0697     24.95846    24.983784    23.008137  -0.13269319  0.020707471  0.022169843    14346.879    9772.2436    9367.3839    9249.5817    1009.3328      515.439    830.62478 
  254500    304.46295   -8904.8385   -7744.0869   -8904.8385            0    10667.157    25.030516    24.882188    23.048867  0.024877872  -0.30218086  -0.14894661    14355.157    10627.443    10947.091    10426.937    579.17963   -57.723347   -291.44935 
  255000    298.97851   -8928.9303   -7789.0878   -8928.9303            0    9476.9278    25.082035    25.041572    22.979259 -0.061603184   0.19482895  0.013222997    14433.125    8623.5546    9015.9658    10791.263   -435.51917   -691.69356   -150.28275 
  255500    294.96447    -8937.919   -7813.3799    -8937.919            0    8998.7657    25.084523    25.030315    23.009173    0.0495998  -0.36936339 -0.024798508     14446.85    9531.6462    8151.6624    9312.9884   -860.07413    1783.9662   -1197.0494 
  256000     314.3276   -8967.1033   -7768.7431   -8967.1033            0    8449.5722    25.052751    24.953336     23.10839 -0.074724097   0.28481823   0.10733521    14446.203    7156.6533    9116.1995    9075.8638    9.9727115   -1258.9682    608.08278 
  256500    299.04525   -8916.2812   -7776.1843   -8916.2812            0     10160.44    24.907692    24.955887    23.097667  0.057014329  -0.49813908  -0.17877322    14357.361    11019.714    9941.9353    9519.6717   -1786.0828    1462.6714      449.001 
  257000    305.59895   -8932.0421   -7766.9595   -8932.0421            0    9985.5879    24.942861     24.99347    23.058529  -0.19864897   0.35395107    0.1606816    14374.886    10818.307    9597.9026    9540.5543     1403.489   -652.75046   -78.185423 
  257500    292.55195   -8906.7192   -7791.3777   -8906.7192            0    11147.739    24.985435    24.943029    22.984347 -0.033354429  -0.35257574  -0.17242585    14324.131    10250.974    12417.856    10774.386    552.64995    208.12222    1197.6732 
  258000    296.72876   -8900.8447   -7769.5794   -8900.8447            0      11781.5    25.067019    24.925549    22.890502 -0.065279848   0.28691235   0.15148034    14302.197    10130.392    13203.286    12010.821   -59.334585   -660.36113   -541.67098 
  258500    301.96425   -8945.9424    -7794.717   -8945.9424            0     10223.16    25.045204    24.896065    23.022703  0.059441344  -0.47183131  -0.14810774    14355.278     10241.65     10271.94    10155.892   -199.16719    331.59032   -517.73621 
  259000    297.75928   -8967.5109   -7832.3167   -8967.5109            0    11449.093    24.965627    24.811307    23.074224  -0.29614133   0.31216231   0.16206219    14292.863    10839.416    13129.181    10378.684    1524.3763   -551.90298   -552.56716 
  259500    299.75179   -8928.8167   -7786.0262   -8928.8167            0    11573.539    24.892871    24.961018    23.067284   0.15975933  -0.29861165  -0.12917762    14332.889    12703.519    10246.866    11770.232    1126.4044    543.17151    1037.8556 
  260000    289.19359   -8974.0655   -7871.5277   -8974.0655            0    10307.013    24.987879    25.029094    22.900594    -0.319545   0.18229517  0.098051201    14322.581    9496.7823    9783.5295    11640.728    875.44779    775.08142   -1051.8784 
  260500    303.49542   -8972.1194   -7815.0564   -8972.1194            0     9224.373    25.109671    25.069522    22.858312   0.12808328  -0.24371491  -0.16275096    14389.021    7896.7378    8732.3521    11044.029   -381.64432    1251.8356    1191.0209 
  261000    295.72605   -8906.3205    -7778.878   -8906.3205            0    9488.7388    25.109952    24.960047    23.043666  -0.19118419 -0.0020438316  0.062351342    14442.516    8975.5898    8629.3053    10861.321    924.07987     125.7595    230.40654 
  261500    300.32845   -8919.9992   -7775.0102   -8919.9992            0    9054.7143    25.057461    24.818985    23.218095   0.10615841  -0.25029452  -0.21119671    14439.351    7640.2025    10328.188    9195.7528   -768.99401     -998.497     380.5351 
  262000     311.8223   -9011.1529   -7822.3441   -9011.1529            0    10500.602    25.002787    24.848883     23.03234    -0.158872   0.09288777   0.18832947    14309.793    10257.896    12233.727    9010.1834    1102.6214   -748.82068   -377.88285 
  262500    294.77586   -8936.8594   -7813.0394   -8936.8594            0    10537.121    25.096264    24.953595    22.908995  0.081152443  -0.24223559  -0.19260101    14346.575    10053.762     10354.64    11202.961   -683.70316    231.33546    -138.9685 
  263000    309.69384   -8884.5041     -7703.81   -8884.5041            0    9984.9757    25.193246     25.00775    22.878561  -0.24547333  0.061461724   0.11994393    14414.097    8650.0884    10614.473    10690.365   -95.523699   -1143.1764   -159.55344 
  263500    304.66137   -8868.5809   -7707.0728   -8868.5809            0    8876.5365    24.980391    24.900324    23.254204 0.0023957877  -0.21244763  -0.19057197    14464.576    9296.6216     10135.98    7197.0076    585.38356    464.58697   -439.39238 
  264000    292.88729   -8945.3418   -7828.7218   -8945.3418            0     10438.08    24.897634     24.91767    23.116865  -0.17898444  0.029147351 -0.023929208    14341.496    10373.777    10692.833    10247.632    603.94706   -2001.9151   -245.05142 
  264500    296.06047   -8940.1804   -7811.4628   -8940.1804            0    10486.748    24.958035    25.054881    22.931979 -0.047396016  -0.38395676 -0.024736227    14339.839    10441.175    10510.974    10508.094   -380.60801    1531.0376   -563.22659 
  265000    299.21094   -8948.1277   -7807.3991   -8948.1277            0    11073.595    24.956061    25.084638    22.822781 -0.095772572   0.15508125  0.025432451    14287.375    11230.916    9004.5051    12985.365   -500.00729   -289.86391    288.79675 
  265500    297.30269   -8945.3916   -7811.9381   -8945.3916            0    11157.712    24.880488    25.016428    22.952003  0.042301862  -0.27450901  -0.10459975    14285.807    11254.053    10696.513    11522.571   -371.65962    115.30524    -460.1342 
  266000    304.83381   -8959.0628   -7796.8973   -8959.0628            0    10061.873    24.883711    25.039807     23.03961  -0.11820375   0.14563774 -0.058006077    14355.597    12281.714    8685.8265     9218.077   -181.80539    -155.6646     158.4621 
  266500    300.86348   -8884.3509   -7737.3221   -8884.3509            0    8422.0106    25.006178    25.132145    23.038924  -0.25398805  -0.39487543 -0.041192324    14479.016    9366.7621    6914.2302    8985.0396   -509.23261    1953.5511   -269.91085 
  267000    288.72157   -8915.2672   -7814.5289   -8915.2672            0    9085.8496    25.054768    24.996623    23.015887 -0.037011669 0.0056064267 0.0061439785    14414.495    8941.3845    9067.3862    9248.7783    1145.3065    812.51957   -806.33257 
  267500    308.96095   -8941.7808   -7763.8808   -8941.7808            0    9329.9927    25.042447    24.912242    23.100088   -0.3399258  0.063593926 -0.0094228062    14411.302    8638.7018    10037.358    9313.9185    191.21387   -245.94656    345.11238 
  268000    292.47402   -8922.0114   -7806.9671   -8922.0114            0    9515.5464    25.069712    24.853831    23.122483   0.21123571  -0.22316314 -0.061786396     14407.12    9341.3761    10674.575    8530.6881   -579.13238   -1662.6883    791.58427 
  268500    295.26295   -8926.4525   -7800.7754   -8926.4525            0    10892.582    25.030618     24.80238    23.080748  -0.22580411   0.20455239 -0.036819788    14328.965    10798.252    12386.089    9493.4073   -489.84616   -1578.4481    -263.7199 
  269000    307.78994   -8962.3796    -7788.944   -8962.3796            0     11199.48    25.061152    24.879113    22.922927   0.20418582  -0.51959669 -0.087595059    14292.428    10490.093    12167.059    10941.289    139.85524    2122.2977    101.53405 
  269500    304.29324   -8896.2928   -7736.1882   -8896.2928            0    10132.663    25.116088    24.976663    22.883169  -0.20014457   0.26209421   0.11392272     14354.98    9042.1253    10734.127    10621.738    993.45416   -260.84617   -105.20568 
  270000     303.9362   -8951.7986   -7793.0552   -8951.7986            0    9384.5932    25.083845    24.938397    23.025948  0.095052243  -0.27902673    -0.131379    14403.903    9971.8132    8896.1632     9285.803   -166.15921    909.46847    123.72286 
  270500    303.62937   -8949.0754   -7791.5017   -8949.0754            0    10512.673    24.949809    25.035352    22.941703  -0.50418416   0.35893514   0.12165404    14330.013    10664.043    10481.204    10392.772    566.11014    168.99433    1202.6367 
  271000    296.30227   -8935.8535   -7806.2141   -8935.8535            0    10922.625    24.905352    24.998916    22.997438  0.073853755   -0.3291395  -0.12566997    14318.362    11259.533    10507.078    11001.264   -354.29148    456.19436     826.6327 
  271500    300.34019   -8922.6636   -7777.6298   -8922.6636            0    10659.092    24.887177    25.064918    22.945945   -0.2031771   0.12976947  0.073616174    14313.567    11204.556    8911.4598    11861.259    599.55097   -582.65307   -642.72685 
  272000    312.97083   -8943.3024   -7750.1148   -8943.3024            0    10891.079    24.835791    25.148631    22.949641  0.026230333   -0.3839031 -0.058665428    14334.028    11136.769    10152.699    11383.768   -546.18501    709.60911   -1141.9441 
  272500    301.87743    -8927.034   -7776.1396    -8927.034            0    9984.3702    24.894966    25.014244    23.098303 -0.087396892    0.2169775  0.003648343    14383.977    9641.9568    10888.854    9422.3002     50.67776   -1558.7274    253.36451 
  273000    304.80562   -8954.9064   -7792.8484   -8954.9064            0    10606.411    24.974249    24.941948    23.013407 -0.013887271   -0.4298411 0.0058779608    14335.199    10345.744    9303.0492    12170.439    -195.0079    804.30109   -217.12272 
  273500    297.81409   -8932.7291    -7797.326   -8932.7291            0    11437.089    25.075306    24.863041    22.951987  -0.33944689    0.2948507 -0.090270235    14309.379    10024.807    11342.949    12943.511   -270.53934   -1339.5948   -394.19095 
  274000    306.40981   -8883.9157   -7715.7417   -8883.9157            0    10425.777    25.058602    24.974116    22.969751   0.02508128  -0.34795594   -0.1019306    14374.847    10878.641    9989.7184    10408.973    558.76431    -725.6983    675.84999 
  274500    295.25109   -8924.6231   -7798.9913   -8924.6231            0    11660.866    24.935536     24.83037    23.079542  -0.21629797   0.31940517  0.051690492    14289.897     10761.98    12756.015    11464.602    467.89663   -1125.9285    -547.9278 
  275000    310.53476   -8943.7936   -7759.8935   -8943.7936            0    11272.316    24.917778     24.86753    23.053014   0.13032473  -0.33925142  -0.11343057    14284.652    11147.357    11674.733     10994.86   -675.95013   -295.65061   -28.556242 
  275500    295.08856   -8996.6711   -7871.6589   -8996.6711            0    10954.489     24.89774     24.90564    23.015349  -0.20538225 -0.023648983  0.052971784    14271.683    11051.526    10788.634    11023.306   -530.37012    598.05321   -238.86669 
  276000    310.81285   -8928.3064    -7743.346   -8928.3064            0    10068.254    25.035914    24.960585    22.983504   0.30305145  -0.28908303  -0.27587697    14362.645    10054.616    9516.9315    10633.213    114.61858   -184.48803    434.16813 
  276500    312.45012   -8955.6376   -7764.4353   -8955.6376            0    9812.1853    25.072609    24.998091    22.973438  -0.27538092  0.032245988   0.16305198    14399.001    9547.6218    9732.5978    10156.336    200.93527    33.467675    -883.7554 
  277000    306.05208   -8910.4335   -7743.6234   -8910.4335            0    10565.597    25.051521    24.906659    23.044405   0.24901681  -0.22728439  -0.13513241    14378.549    9620.1486    10724.052    11352.591   -1574.1758     398.4634    568.94324 
  277500    296.72076   -8937.3451   -7806.1103   -8937.3451            0    10408.089    25.062442    24.771288     23.09918  -0.38421366    0.1709613   0.12899682     14340.64    10270.598    11093.032    9860.6376    1209.3872   -388.43354    385.92591 
  278000    313.71411   -8964.3449   -7768.3236   -8964.3449            0    10195.141    25.016071    24.846708    23.053394  0.063557258  -0.27381119 -0.003248794    14329.229    9979.9054    10944.118    9661.3993    48.939204    932.13165   -2038.4948 
  278500    303.18921   -8912.6627   -7756.7671   -8912.6627            0    10307.611    25.108571    24.872046    22.962882  -0.32064809   0.24262446  0.005170051    14340.355    10450.232    10855.664    9616.9382    353.17875   -1586.5796    -490.9161 
  279000    296.48588   -8925.4233   -7795.0839   -8925.4233            0    9713.0357    25.074242     24.93138    23.048075  0.070976981  -0.41099583  -0.20018975    14408.169    9192.2597    9962.1058    9984.7416   -875.07724    817.24948    139.28005 
  279500    301.16432   -8917.6762   -7769.5005   -8917.6762            0    10192.343    24.987125    25.002901     23.00658  -0.15066994   0.19847371  0.023985649    14373.375     9205.993    11397.665    9973.3723    226.14691    164.43478    238.66167 
  280000    300.32986   -8902.5485   -7757.5542   -8902.5485            0    9378.0388    24.945034    24.910468    23.209856   0.20339225  -0.52512243 -0.035048348     14422.43    10313.118    10146.845    7674.1543   -466.95535     1251.768   -82.708563 
  280500    310.38818   -8964.6453    -7781.304   -8964.6453            0    10699.703    25.034761    24.895809    22.965731  -0.18975364   0.17961977 0.0057031822    14313.636    11351.072    10979.886    9768.1502    1142.3895   -439.02436    1059.2529 
  281000    304.46128   -8962.6676   -7801.9223   -8962.6676            0    10261.029    25.146906    24.822873    22.980697   0.07847147   -0.2260118  -0.12449026    14344.975    8219.4903    12409.006    10154.589   -599.55371    344.33638    392.70727 
  281500    309.35804   -8937.7444   -7758.3304   -8937.7444            0    10245.269    25.217507    24.851996    22.946285  -0.20685338  -0.13529769   0.12099494     14380.56    10368.957     10323.05    10043.798   -428.59609   -582.15895    -185.0263 
  282000     300.6955   -8923.6367   -7777.2483   -8923.6367            0    10564.002    25.031683    24.951218    23.004824 0.0066411747 -0.018050083 -0.079738295    14368.146    9487.1245    11172.161    11032.719   -215.33918    358.59458    259.67794 
  282500    298.10925   -8934.5703   -7798.0419   -8934.5703            0     10372.64    25.092407    24.903876    23.007005  0.061745965  -0.33068363   -0.1034633    14377.036    9060.9776     11236.02    10820.922   -1291.7689   -566.70183    874.48022 
  283000    305.29041   -8896.9355   -7733.0293   -8896.9355            0    9966.0819      25.1135    24.954499    22.987628  -0.37692922   0.13282324 -0.0026045373    14406.227    8531.0811    10751.473    10615.692    413.61384   -589.80656   -700.11526 
  283500    299.26757   -8985.9895    -7845.045   -8985.9895            0    9136.3066    25.070427     24.93924    23.012718  -0.11443178  -0.31843141  0.015831742    14388.412    9782.7368    8373.1089    9253.0741    911.43735     686.8295    256.07795 
  284000    302.01262   -8919.5269    -7768.117   -8919.5269            0    10618.066    24.994485    24.885848    23.074799 -0.041418556   0.11843744 -0.0060936902    14352.732     9180.593    11969.614     10703.99     910.0584    -195.5631    94.331097 
  284500    307.05888   -8865.8504   -7695.2019   -8865.8504            0    10630.947    24.907679    25.092697    23.001613   -0.1131584  -0.16994685 -0.098908358    14376.028    11019.429        10791    10082.413    374.99618   -319.68873    925.18885 
  285000    288.18563   -8926.9364   -7828.2414   -8926.9364            0    10282.937    24.945192    25.105875    22.880548  -0.11763375  0.099936026 -0.078179112     14329.42     10405.54    9894.2933    10548.979   -733.85633   -1659.9593   -86.768084 
  285500    301.18942   -8958.1084    -7809.837   -8958.1084            0    11166.982    24.908321    25.087861    22.889536  -0.10784992  -0.49320562  0.088828194    14303.591    12758.457    9133.9203    11608.569   -117.74623    945.76703   -1664.6386 
  286000    290.13479   -8942.4498   -7836.3237   -8942.4498            0    10666.992    24.824731    24.961512    23.108487  -0.16072393   0.11736305  -0.16331707    14319.471    11828.554    10920.164    9252.2595   -478.53983   -939.62965    98.752834 
  286500    310.46512   -8922.5253   -7738.8906   -8922.5253            0    9940.0012    25.029865    24.881628    23.091958  0.067690542  -0.22147127   0.03739702    14381.297    10344.258     9853.693    9622.0527    1692.0423    779.36082   -446.07511 
  287000    299.28398   -8945.3206   -7804.3135   -8945.3206            0    9792.4416    25.194342    24.965311    22.825202  -0.33284122   0.17485882  -0.12404573      14356.7    7815.5201    10075.191    11486.614    695.33893   -1496.6663    819.94982 
  287500    306.37307    -8853.765   -7685.7311    -8853.765            0    10228.757     25.09329    25.021835     22.92236   0.25946068   -0.2830988  0.054840859    14392.495    10181.443    9242.1108    11262.718   -535.63019    1361.3774   -2328.7313 
  288000    296.63414   -9016.0384   -7885.1338   -9016.0384            0    9845.5632    25.016195    24.835308    23.029844  -0.31507735  0.091596471 -0.093384592    14308.095    9144.2335    11777.235    8615.2208   -355.03653   -414.21291    1472.6725 
  288500    294.90687   -8952.8915   -7828.5721   -8952.8915            0    9936.4368    24.993172    24.781177    23.173325   0.32511017  -0.30153621   0.11680377    14352.636    9083.9808    12286.331    8438.9988   -851.51173   -31.008022   -220.16482 
  289000    315.58173   -8935.3828   -7732.2413   -8935.3828            0    9440.0462    25.060911     24.95728    23.048671   -0.2240865  0.072251802   -0.1638998    14415.841    8928.4436    9673.4673    9718.2278   -359.57121    870.91067    14.698273 
  289500    295.52879   -8940.5217   -7813.8311   -8940.5217            0    9430.9531    24.970896     25.07289    22.943619  0.032415334  -0.23529851  0.042827396    14364.829    10877.015     8600.913    8814.9316    -1632.588   -284.66068    166.17474 
  290000      301.132   -8903.0308   -7754.9783   -8903.0308            0    10162.043    24.821982     25.18826    22.968556  -0.15637401   0.12498645  -0.07206523    14360.459    11743.875     9062.192    9680.0617    50.409644   -1671.7475    109.63686 
  290500     288.6649    -8956.723   -7856.2008    -8956.723            0    10249.681     24.86823    25.071015    23.007508  0.003094608  -0.23751317  0.015899851    14344.532    11041.698    9841.5684    9865.7772   -504.72376   -712.62527    -467.4259 
  291000    299.10227   -8882.6119   -7742.2977   -8882.6119            0    9810.6156    24.874135    25.162113    23.056744  -0.18886929   0.15755276  -0.15393004    14430.888    11482.134     8648.349    9301.3637     636.6934   -790.84678    885.04546 
  291500    298.59496   -8890.1674   -7751.7873   -8890.1674            0    9354.7433     24.89098     25.09164    23.108389 -0.011633525    -0.482658   0.16106876    14432.472    9548.1681    8902.3483    9613.7134   -1365.7037    1919.9018   -1266.6479 
  292000    291.45887   -8941.7167   -7830.5426   -8941.7167            0    10217.398    24.949096    25.046744    22.941337 -0.084875618   0.17527558 -0.097044531    14335.895    10552.499    9555.5288    10544.165    626.43068   -150.70636    119.02307 
  292500     307.9655   -8945.0485   -7770.9435   -8945.0485            0    11145.438    24.898887    25.037099    22.936231 -0.012471488  -0.42784031   0.12062588    14298.353    11041.974    11628.955    10765.385    252.07727    1296.8181    -1036.159 
  293000    291.83998    -9008.368   -7895.7409    -9008.368            0    9721.2034    24.890156    24.939707    23.113057  -0.17548629   0.19055949 0.0013369373    14347.504    11059.604    9048.3069    9055.6987   -111.57898   -1383.7959   -242.03406 
  293500    292.46442   -8886.7827    -7771.775   -8886.7827            0    9532.6719    24.964713    25.041628     23.06566 -0.017831705  -0.29475319  0.034411275     14419.66    10709.343    8489.5635    9399.1093     497.7829   -518.54029   -295.28125 
  294000    299.95038   -8956.2787   -7812.7311   -8956.2787            0    7110.7859    25.108313    25.150992    22.967722  -0.11822836  0.099306905  -0.09369538    14504.093    8051.5702     5608.687    7672.1004     704.5562   -886.80143    837.23247 
  294500    306.11911   -8902.5394   -7735.4737   -8902.5394            0    9512.9573    25.018473    24.936163    23.102701  0.046040298  -0.25334416  0.045915144     14412.96    9357.1305    10327.187    8854.5547    207.16754   -216.91196     73.26299 
  295000    299.18824   -8907.3414   -7766.6994   -8907.3414            0    8884.1227    25.022764    24.955008    23.091565  -0.27743839   0.21428772 -0.043216331    14419.372    9376.4676    8437.8511    8838.0494    1329.2628   -1948.3894    496.55024 
  295500    296.31284   -8910.3582   -7780.6785   -8910.3582            0    8677.1059    25.087087     24.96049    23.047274   0.11909694  -0.36934428   0.04810063     14431.88    8817.4526    9648.1824    7565.6829   -653.64802    387.46683    418.90664 
  296000     301.4509   -8932.0039   -7782.7356   -8932.0039            0    9687.2178    25.083611    24.949285    23.034216  -0.11371224   0.10940213 -0.0078060166    14415.231    10763.655    9245.0467    9052.9515   -485.63798   -340.11289   -781.59687 
  296500    294.12059   -8952.1346   -7830.8128   -8952.1346            0     10042.25    25.134829    24.909601    22.963994   0.11637512  -0.32604656  -0.14626209    14377.723    9001.5941    9911.0962    11214.061   -653.57541    356.59863    24.685938 
  297000    294.87529   -8926.5688   -7802.3697   -8926.5688            0    10031.923    24.985087    24.965903    23.034073 -0.059119669 -0.020648463 -0.0012900948    14368.085    8882.8039    10840.348    10372.617    364.64184   -251.88591    542.60235 
  297500    298.06126   -8844.0144    -7707.669   -8844.0144            0    9739.9103    25.043572    25.031862    22.979184 -0.055425466  0.051309176  0.048996131    14405.357    9671.6236    9483.3325    10064.775   -1032.7563     -1074.73   -198.93109 
  298000    301.17247   -8950.3737   -7802.1669   -8950.3737            0    9128.3225    25.015882    24.947477    23.070285 -0.024888011   -0.2714173  -0.22828857    14397.776     8878.869    9682.5928    8823.5058    248.45803   -492.48697     1082.697 
  298500    305.93327   -8942.9819   -7776.6248   -8942.9819            0    9820.5513    24.937791    24.933845    23.113593 -0.013564943   0.16658177   0.20606352    14371.917     9884.396     9763.348    9813.9098   -675.15051     320.1156    -295.4106 
  299000    305.35815   -8925.4612   -7761.2967   -8925.4612            0    10466.285    25.009395    24.937388    23.000039 -0.088537387   -0.4085809  -0.24870354    14344.411    10833.567    10652.239    9913.0495    462.42338    574.97476    749.29232 
  299500    293.74272   -8933.5394   -7813.6582   -8933.5394            0    10401.971    25.125909    24.922229    22.872891  0.044756728   0.14882725   0.20955236    14322.859    9757.4863     10728.15    10720.278   -639.85976    458.68937   -1358.6025 
  300000    287.90687   -8904.4865   -7806.8542   -8904.4865            0    10916.927    25.104995    24.927875     22.91508  -0.23869392  -0.29767487  -0.19879041    14340.582    9866.0037     10682.42    12202.357    570.10598    125.31202    198.88681 
  300500    291.12098   -8917.9718   -7808.0858   -8917.9718            0    10994.708    25.048316    24.795096    23.093699    0.3003552    0.2732328    0.2431046    14342.929    10742.657    11563.885    10677.584   -1586.4226    158.03807   -567.99036 
  301000    302.91169   -8960.5376   -7805.7001   -8960.5376            0    10423.392    25.022151    24.913825    22.981485  -0.26430632  -0.28633381  -0.20059678      14326.6    10121.447    11285.597    9863.1339   -134.87401    1340.2315   -152.88435 
  301500    299.06993   -8922.5623   -7782.3713   -8922.5623            0    9347.4048    25.024514    24.986703    23.098587  0.097082552   0.22312223   0.23472775    14443.087    9634.4718    10002.886    8404.8562    788.06258   -496.69049    100.13845 
  302000    294.13176   -8946.9573   -7825.5929   -8946.9573            0    8194.1713     24.99573    24.995587    23.131992  -0.37919589  -0.26947492  -0.11247526    14452.474    8465.6676     8974.599    7142.2474    285.38591    103.62097    918.39681 
  302500     290.7934   -8954.3564   -7845.7194   -8954.3564            0    8054.1052    25.062435    25.022285    23.049454  0.056845938  0.031483607 -0.057754406    14454.759    8417.7527    8074.1946    7670.3683   -128.57378    202.73418    960.62328 
  303000    297.45623   -8914.7993   -7780.7605   -8914.7993            0    8022.1047    25.157998    25.039745    23.015272 -0.061207509  -0.38461401  0.027924762    14498.467    8968.2227     6833.728    8264.3633   -1361.3606    1013.0856   -6.0637756 
  303500    297.95934   -8934.9391   -7798.9823   -8934.9391            0    8962.0064    25.076436    24.929994    23.035793 -0.027680724   0.11429641 -0.047044245    14400.951    8019.1733    9657.4165    9209.4294    -560.0921   -160.44149   -390.64373 
  304000    290.40233   -8968.2969   -7861.1508   -8968.2969            0    8916.4367    25.043821    24.929637    23.032299 -0.072328889  -0.46471937  -0.10738898    14379.833    8514.5215    9104.9135    9129.8752   -293.19513     1573.821     956.0121 
  304500    304.60083   -8936.5532   -7775.2759   -8936.5532            0    9571.8518    25.077284    25.016953    22.985001 -0.010476739   0.34295002   0.25291354    14419.807    9557.2864    9226.5124    9931.7567   -960.13282   -399.05245   -1281.4469 
  305000    300.74571   -8918.2649   -7771.6851   -8918.2649            0    9378.7916    24.983488    25.048836    23.020121  -0.22006868  -0.38556039  -0.18254307     14406.16    9329.2323    9064.4382    9742.7043    1339.0355    414.29781    463.48713 
  305500    298.71133   -8906.6645   -7767.8407   -8906.6645            0    10130.393    24.966039    25.072876    22.986853   0.18721904   0.30287552  0.061816522     14389.09    10957.589    8317.7221    11115.868   -164.64626   -1138.2996   -122.15417 
  306000    297.30332   -8940.9369   -7807.4811   -8940.9369            0    9190.3361    24.942977    25.009243    23.087881   -0.4985953  -0.35049168  -0.18803649    14402.334    10068.445    9040.9192    8461.6447    333.08426    649.18145   -169.34566 
  306500    290.76245   -8890.0548   -7781.5358   -8890.0548            0     9751.277    24.993106    24.999119    23.086431   0.18694585 -0.0071171573  0.098145185    14424.532    9683.4553    9998.2036    9572.1721   -870.99286   -852.91217    265.99897 
  307000    309.50451   -8947.2871   -7767.3147   -8947.2871            0    9676.9652    24.917302    24.953506    23.156953  -0.50791743  -0.12145102  -0.18235919    14398.393    11089.479    9235.8331    8705.5834      941.067    419.99686     -383.998 
  307500    301.70491   -8923.2635   -7773.0267   -8923.2635            0    10201.507    24.988249    25.041797     23.01572   0.31042359  -0.15672681   0.12756449    14402.103     10669.69    9550.5581    10384.273   -638.86739   -428.44589   -560.34653 
  308000    302.92341    -8955.493   -7800.6108    -8955.493            0    9486.3345    25.085984    24.989123    22.944926  -0.29075489  -0.10935741   -0.1627705    14383.641    9171.4481    9388.3372    9899.2181    1493.6403    1066.0221    488.72285 
  308500    304.75631   -8917.3398   -7755.4697   -8917.3398            0    11291.111    25.086079    24.984029    22.845328   0.12876461 -0.089543207   0.02968753     14318.34    12345.601     10585.54    10942.193    266.72895    644.99941    848.19359 
  309000    312.76342   -8938.6361   -7746.2392   -8938.6361            0    11019.485    24.940674    24.808772    23.122468  -0.19784678 -0.033145313  -0.13084954     14306.97    11296.743    11982.264    9779.4482   -395.99253    850.69968    1363.4019 
  309500    317.00717   -8897.0831   -7688.5072   -8897.0831            0    10636.917    24.945981    24.931675    23.090845  0.023290586  -0.18689243  0.095116032    14361.238    10590.546     10898.63    10421.575   -1428.5081    746.22558   -943.60401 
  310000    306.88362   -8936.6881   -7766.7078   -8936.6881            0    10507.306    24.871199    25.165838    22.889887 -0.0096980307  0.070704756 -0.066186314    14326.885    12024.687    8665.3816    10831.851   -303.53386    608.58299   -244.07918 
  310500    316.42256   -8931.3159   -7724.9688   -8931.3159            0    9675.8386      24.9738    25.091295    22.985514  -0.12757727   -0.1618844 -0.043508048    14403.297    11229.038     8473.766    9324.7115   -667.57812   -68.816478    489.91204 
  311000    293.40978   -8929.5077   -7810.8958   -8929.5077            0    9666.9896     24.93703    24.973686    23.114665   0.27609066  -0.11317073   -0.0289684    14395.109     9456.241      9930.67    9614.0579    379.93872   -632.39723    1033.2198 
  311500    294.34553    -8931.667   -7809.4876    -8931.667            0    9023.5321     24.91585    24.917564    23.199428  -0.41254742 -0.0021880221  -0.04256437    14403.186    9284.6218     9552.746    8233.2285    558.86292    971.87472   -648.67629 
  312000    293.45133   -8919.5334   -7800.7631   -8919.5334            0    9705.9275    25.034969    24.977834    22.989169   0.26489738 -0.063202653 -0.080923256    14375.571    9100.7871     11731.79    8285.2058    44.312862    1221.0606    731.92629 
  312500    297.92229    -8933.166   -7797.3504    -8933.166            0    8659.5071    25.111819     25.10196    22.916346  -0.52483897 -0.063432393  -0.01796923    14445.454    8081.6389    8738.6387    9158.2437    784.73045     391.7855   -400.13728 
  313000    288.20029   -8894.0701   -7795.3192   -8894.0701            0    9731.6653    25.000002    25.023457    23.037592   0.13040374  -0.15511662  -0.13255372    14412.006    10488.317    9436.7592    9269.9197   -1014.0676     1223.234    718.34038 
  313500    307.23617   -9004.4673   -7833.1429   -9004.4673            0    9360.0597    24.821007    25.061642    23.068752  -0.14144919  0.057576039 -0.0012359983    14350.037    9790.8475    9225.7783    9063.5533    498.08413    682.13095   -255.12948 
  314000    296.53014   -8917.5656   -7787.0574   -8917.5656            0    11015.584     24.69823    25.136687    23.097267  0.056931379  -0.19683033  -0.22183496    14339.515    12529.555    8778.8795    11738.316   -810.63205    1092.6634   -428.83509 
  314500    303.65362   -8911.1241    -7753.458   -8911.1241            0    11216.971    24.926175    25.015421    22.991701  -0.17640439  0.009996768 -0.064120476    14336.217    10974.209    10258.456    12418.247    587.09945   -48.628567    470.40353 
  315000    290.57508   -8899.5928   -7791.7881   -8899.5928            0    11732.657    24.949581    25.024224    22.906764   0.19191329  -0.23179143   0.11054728    14301.698    10607.926    10992.385    13597.658   -801.37136    170.33702   -338.20988 
  315500    305.37646   -8897.5124   -7733.2781   -8897.5124            0     10982.35    24.990945    24.866303    23.080381  -0.36920004  0.011355388  -0.17235429    14342.896    11018.699    10541.809    11386.542    723.81661    81.445939    1450.6997 
  316000    303.67375   -8906.0065   -7748.2636   -8906.0065            0    9806.0581    25.005053    24.862266    23.102013   0.13901254  -0.15303635    0.1449338    14362.112     9109.275    11723.014    8585.8851    -273.3796    1031.0922     -917.069 
  316500     299.1757   -8921.1235   -7780.5293   -8921.1235            0    10666.475    25.191224    24.789477    22.918717  -0.31048536  0.091086389  -0.39580839    14312.217    9170.4616    12080.551    10748.412    1146.2627   -655.16983    1756.8984 
  317000    292.77421   -8949.3265   -7833.1377   -8949.3265            0     10069.52     25.05432    24.928175    22.941554 -0.027595768  -0.15117686 -0.014259793    14328.342     10545.15     9676.757    9986.6524   -522.31154     1013.072   -647.11498 
  317500    280.11091   -8960.5402   -7892.6297   -8960.5402            0    9805.5416    24.962915    24.946255    23.090191  -0.12747335  0.064386268 -0.0039378832    14378.983    9644.9704    10347.181    9424.4736   -151.98825    -736.3952   -867.35931 
  318000    292.36027   -8921.8716   -7807.2609   -8921.8716            0    9340.1624    24.927806    24.929198    23.213378 -0.077841479  -0.32859451  -0.08763477    14425.494    10329.458    9220.9524    8470.0768    605.82664    780.14742   -355.75971 
  318500    294.29361   -8949.5687   -7827.5872   -8949.5687            0    9991.9254    24.973724    24.992083     23.00874 -0.018609792   0.10216421   -0.1343366    14360.799    10812.731    9919.2334    9243.8118   -534.10936    4.7107712    236.22293 
  319000    307.08206   -8920.8775   -7750.1407   -8920.8775            0    10840.428     24.99993     25.00071    22.930935  -0.19936989  -0.23564122 -0.021983144    14332.201    10816.159    10887.552    10817.574    982.76102    799.49032   -545.17845 
  319500    300.21751   -8939.2464   -7794.6804   -8939.2464            0    10793.296    24.839998    24.950052     23.10364     0.158782 -0.020897511 -0.040476812    14318.695    11847.746    11200.627     9331.514   -542.13912   -151.91492   -1794.9777 
  320000    312.30933   -8983.0423   -7792.3767   -8983.0423            0    9863.9854    24.900751    24.952115    23.080779  -0.20527003  -0.19767817 -0.010592647    14340.698    10061.334    10214.755    9315.8673    936.49447   -613.30653   -15.893411 
  320500    302.16719   -8940.5451    -7788.546   -8940.5451            0    11288.463    24.862314    25.185873    22.799218   0.16876165   0.15701712  -0.18394769    14276.393    11776.365    10213.402    11875.622    1011.9396   -1107.0678    1419.7527 
  321000    291.95126   -8919.8199   -7806.7686   -8919.8199            0    11005.213    24.989918    25.029622    22.869987  -0.30957416  -0.19388943  0.073086044    14304.907    10748.818    10902.409    11364.412   -159.20251    11.252536   -623.52006 
  321500    287.19954   -8908.8534   -7813.9178   -8908.8534            0    11851.649    24.787107    24.907502    23.123849   0.21298023  0.034223354  -0.21154977    14276.315     13877.33    11184.758    10492.859    1142.8009   -504.14547    802.44805 
  322000    303.83656   -8926.4449   -7768.0814   -8926.4449            0    9726.3066    24.985792    24.912464    23.100427  -0.32723308  -0.14306464   0.14106807    14379.037    9792.5839     9748.619    9637.7167    915.51942   -258.31262   -1360.5756 
  322500    304.51434   -8971.2636    -7810.316   -8971.2636            0    8480.0047    25.185965    24.952247    22.977003   0.31562434  -0.16870407  -0.23674394    14439.815    7060.5107    9107.4379    9272.0654   -210.75293    30.848415    37.666324 
  323000    310.33917   -8954.6557   -7771.5012   -8954.6557            0    9038.2702    25.200671     24.95869    22.933977  -0.14855961 -0.031607306   0.10538758    14424.915    8158.9543    8564.0589    10391.797    1054.5201     375.5888   -615.31528 
  323500      307.641   -8949.6169   -7776.7491   -8949.6169            0    10515.206    25.135458     24.81562      22.9839  0.046384505 -0.033400843   -0.1515844    14336.253    8928.9818     12139.39    10477.245   -915.85007    573.52935    51.212768 
  324000    297.70668   -8979.9231   -7844.9295   -8979.9231            0    10879.409    25.015475    24.814199    23.047893  0.010136366 -0.034066665   0.12116594    14306.726    11472.877    11133.302    10032.048     475.6055    848.54463   -1366.1568 
  324500    299.80227   -8929.3332   -7786.3503   -8929.3332            0    11538.252    25.013209    24.927464    22.930731  -0.20007101 -0.071209888  -0.08183648    14297.675    10213.121    12304.383    12097.253    520.38859     638.5205    705.21244 
  325000    309.85716   -8932.4815   -7751.1647   -8932.4815            0    11124.058    25.038395    25.029704    22.806503   0.10546858  -0.13963327 -0.045806338    14292.918    10636.673     10370.72     12364.78   -304.63739   -180.40789   -438.90608 
  325500     301.3964   -8888.7608   -7739.7003   -8888.7608            0    10615.062    24.932646    25.066106    23.006574  -0.15625686   0.00396915  0.033513351    14378.289    10562.975    10642.361     10639.85   -285.70191    263.07125    67.475428 
  326000    293.56274   -8931.2034   -7812.0084   -8931.2034            0    9409.1056    24.980935    25.013273    23.058616  0.065849635  -0.15626849  -0.12762123     14408.29    9433.3597    8453.3834    10340.574   -562.46615    809.26661   -99.688069 
  326500    298.54586   -8958.5083   -7820.3153   -8958.5083            0    6995.4405    24.940955    25.085133      23.2379  0.069204572 -0.073376213  0.032475249    14538.727    7168.0775    6903.9041      6914.34   -255.67963   -303.18599   -358.15899 
  327000     294.9623   -8896.3832   -7771.8524   -8896.3832            0    8833.1642    24.951275    25.053194    23.115484  -0.17174915  -0.11316158  -0.12797126      14449.7    10297.822    8322.6232     7879.047    638.42295   -191.59643    297.66911 
  327500    296.04689   -8955.1554   -7826.4896   -8955.1554            0    8375.5154    24.948255    25.114374    23.014814   0.22185626 -0.029786198   0.14075794    14420.157    7885.2674    7611.2214    9630.0573   -1533.1521   -653.14268    492.57953 
  328000    293.79018   -8929.2749   -7809.2128   -8929.2749            0    9421.4732    24.927593    25.114611    22.976604  -0.37034518  -0.15914751  -0.17207255    14384.429    9319.1965    8888.3443    10056.879   -162.00707    438.22947   -89.943291 
  328500    294.69806   -8906.5356   -7783.0122   -8906.5356            0    10516.467    24.843985    25.021475    23.091411  0.048977893  -0.10327549   0.10864362    14354.387    11460.731     9918.521    10170.148   -414.73981   -317.08865   -14.197509 
  329000    304.98446   -8952.8122   -7790.0724   -8952.8122            0     10580.63     24.87558    24.957259    23.076913  -0.25854803 -0.021634696  -0.18414455    14326.754    12292.971    9918.1077     9530.811    730.89645   -432.58488   -193.90581 
  329500    298.56359   -8928.8821   -7790.6215   -8928.8821            0    10612.057     25.04498    24.999946    22.910669 -0.096990525  -0.13910827   0.14059108      14344.9    9481.2748    10120.622    12234.274   -296.63146     461.8077   -363.19186 
  330000    317.41714   -8898.8191   -7688.6801   -8898.8191            0    9939.2887    25.206638    24.970294    22.809071 -0.081317922 -0.056379001  -0.20225282    14356.421    8740.6424    10217.978    10859.246   -498.51348   -73.203827    40.277757 
  330500    300.99233   -8963.5333   -7816.0133   -8963.5333            0    8881.8033    25.111571    24.910574    23.037841 -0.068015808  -0.24375697   0.12831672    14411.175    8344.5265    9269.2935      9031.59    510.29416   -377.70564    25.181049 
  331000    296.49502   -8984.2996   -7853.9253   -8984.2996            0    9353.2587    25.039599    24.657202    23.281798  0.017802249   0.26219275  -0.29324771    14374.332    8430.2729    12052.918    7576.5849    97.635264    -794.7241    460.73548 
  331500    302.79383   -8929.6902   -7775.3021   -8929.6902            0    9780.0311    25.056199    24.893237    23.026593 -0.062146091  -0.19927543   0.12382516    14362.374    8255.3341    11660.156    9424.6029   -981.75431    108.91512   -1472.9436 
  332000     304.4833   -8938.2802    -7777.451   -8938.2802            0    9571.8319     25.15458    24.996333    22.857944 -0.016091924 -0.011527589 -0.080226196    14372.441    8614.0767    9325.5849    10775.834   -267.19001   -813.97034    180.70754 
  332500    294.63222   -8878.1027   -7754.8304   -8878.1027            0    10631.524     24.97661    24.957573      23.0382 -0.0078822324    -0.105533  0.035586559    14360.991    10095.051    11078.844    10720.676    890.01102     215.1838   -231.12401 
  333000    286.41321   -8915.9542   -7824.0165   -8915.9542            0    10670.911    24.829685    24.948816    23.188707  -0.12886973  -0.12325745  0.037536639    14364.737    11590.579    10963.985    9458.1699    467.09637    1526.0932   -463.56437 
  333500    296.10461   -8895.6906   -7766.8047   -8895.6906            0    10954.302    24.914349    25.043439    22.980864   0.11366722  -0.17393114  0.023375816    14338.703    11133.567    10507.859    11221.481    236.81295   -368.08451   -827.85049 
  334000    301.40571   -8949.0164   -7799.9204   -8949.0164            0    10334.032    25.042733    25.057183    22.870746  -0.23732627 -0.034550655  -0.13563975    14351.401    10755.376    8790.7955    11455.925   -604.42099   -578.35487    584.03088 
  334500    302.72292   -8909.3068   -7755.1889   -8909.3068            0    9670.6588    25.018728    25.024441    22.961359  -0.10675711  -0.20600008  0.095363244     14375.64    9021.7349    10732.842       9257.4    456.92904   -1295.4563   -32.320002 
  335000    292.35343    -8944.763   -7830.1784    -8944.763            0    9727.1675    24.861922    25.040208    23.146242  0.046051565  0.054123435  -0.20899976     14409.64    10571.448    8864.1137    9745.9411    -358.4996    265.71716    2439.1534 
  335500    306.52968   -8879.7112   -7711.0803   -8879.7112            0    9167.6694    24.973891    24.975597    23.133037  -0.12327549 -0.088244224  0.049017186     14428.95    10809.193    8024.7292    8669.0861    -466.1797   -962.80032   -960.11033 
  336000    304.03592   -8900.9435   -7741.8199   -8900.9435            0    10658.473    24.982955    25.031381    22.984809   0.13958349   0.10627907  -0.11264182    14373.732    11503.309     9691.365    10780.744   -147.55006   -1162.9163   -107.80812 
  336500     312.0111   -8949.9845   -7760.4559   -8949.9845            0    10402.391    25.016317    25.061505    22.833321  -0.30719523  -0.39143951  0.040151632    14315.272    10127.268    10164.047     10915.86    844.05356    103.77248   -31.485999 
  337000    298.12763   -8928.1733   -7791.5748   -8928.1733            0    10329.748    25.045443    24.942736    22.954068   0.15025356 -0.048349554 -0.054807626    14339.449    10364.609    10154.033    10470.601   -1159.1395   -37.560781    1046.3751 
  337500    307.34049    -8934.556   -7762.8339    -8934.556            0     9502.001    25.145444    24.866233    23.010267  -0.35287811   -0.3548696  0.089121937    14387.687    9261.9888    10075.571     9168.443   -426.77237    1079.0354   -37.237086 
  338000    291.09572   -8954.6234   -7844.8338   -8954.6234            0    9737.7567    25.079205    24.785171    23.098262   0.19768345 0.0059977083  -0.14831455    14357.704    9624.0441    10740.913    8848.3134   -276.69562    876.32086     580.9154 
  338500    303.05828   -8932.5673   -7777.1709   -8932.5673            0    9856.5744    25.102271    24.898589     22.99233  -0.22768622   -0.1511952 0.00060967228    14370.462    8977.5663     10914.51     9677.647    543.93774    634.92468   -422.10771 
  339000    302.17302   -8910.5762   -7758.5548   -8910.5762            0    9623.0948    25.138738    24.930008    22.980975   0.18809068  0.068686831  -0.18755936    14402.383    6891.8554    11001.775    10975.654   -579.58532   -159.92235   -866.05851 
  339500    295.64508   -8933.8145   -7806.6806   -8933.8145            0    10526.029    25.000058     24.95672    22.997988  -0.27888589  -0.23026118  0.052523692    14348.892    10717.095    10432.779    10428.211    229.09129    16.759415   -1232.3687 
  340000    303.91961   -8938.6518   -7779.9716   -8938.6518            0    10168.297    24.959997    24.961455    23.058029   0.18507691 -0.010373692 -0.051731583    14366.025    9248.7159     10828.33    10427.844   -956.81416    221.31869   -140.11195 
  340500      307.032    -8882.096     -7711.55    -8882.096            0    8783.3063     24.90724    25.157414    23.036084  -0.46489606  -0.29761593  0.046880162     14434.45    10293.463    9061.3538    6995.1017    1182.1919   -191.98027   -360.84002 
  341000    303.92341   -8956.6014   -7797.9068   -8956.6014            0    9696.2689    24.915915    25.069311    23.001608    0.1213049  0.019491443 -0.037627067    14367.375    9892.0452     8880.301     10316.46    -234.9104    -392.9619   -308.05918 
  341500    292.22614   -8977.5328   -7863.4335   -8977.5328            0     9415.015    24.859483    25.057057    23.039445  -0.26232557  -0.29006082  -0.15797372    14351.396     10078.54    9446.7022    8719.8033   -221.49185    873.43897    1689.1401 
  342000    288.70559   -8920.8196   -7820.1422   -8920.8196            0    8695.4622    24.873456    25.098283    23.150016  0.025632017   0.12272471 -0.059095223    14452.116    10247.279    7448.0255    8391.0826    521.73761   -542.44388    21.929349 
  342500    303.33222   -8953.0872   -7796.6464   -8953.0872            0    8520.9129    24.971711    25.013595    23.098265 -0.080972721  -0.22014553  0.031457527    14427.922    8990.3078    8248.3012    8324.1298    732.76842    19.418908    1071.5928 
  343000    293.98112   -8914.5062   -7793.7161   -8914.5062            0    7741.4663    25.089551    25.219459    22.903661 -0.040472329   0.34305079 -0.028305584    14492.174    6808.3314    6123.3879     10292.68   -715.40443   -409.46555   -232.43336 
  343500    292.98142     -8934.48   -7817.5012     -8934.48            0    10232.693    25.006196    24.964367    22.972663 -0.033286194   -0.2211421 -0.081119766    14341.003    10634.787    10928.882    9134.4092    162.84671     908.9705    1653.5112 
  344000    303.36615   -8958.6597   -7802.0896   -8958.6597            0    11552.884     25.00094    24.744546    23.060433  0.005421038     0.103776 -0.021705781    14266.034    11061.376    12523.183    11074.093    119.85116   -911.38713    -175.5428 
  344500    296.82615   -8984.1686    -7852.532   -8984.1686            0    10207.842    25.055805    24.727402    23.092399 -0.024498673  -0.38633454   0.12171255    14307.241    9082.9956    11687.806    9852.7247    332.37945    110.08192   -837.36852 
  345000    310.40419   -8956.2527   -7772.8504   -8956.2527            0    9885.4025    25.092725    24.865096    22.995997 -0.068922232   0.24417744  -0.18526217    14347.962    9847.8826    9843.9531    9964.3717   -294.58883   -479.53997    384.59028 
  345500    301.19479   -8963.8333   -7815.5414   -8963.8333            0    8616.1675    25.077898    24.940969    23.002784  0.048309116  -0.27140229  0.070246725    14387.484    6788.6522    9833.6452    9226.2052    -916.6822    643.92598   -1004.0679 
  346000    295.05088   -8915.5546   -7790.6861   -8915.5546            0    8534.6731    25.168914    25.005484    22.958167  -0.27325317   0.13587262 -0.030494762    14448.972    6263.8747    9394.7148    9945.4296    363.39705   -952.29862    473.63776 
  346500    298.68857   -8961.9247   -7823.1877   -8961.9247            0    8945.9725    25.033757    24.885187    23.138789  0.055858928  -0.23035049 -0.033831179    14414.765    7722.7619    10225.555    8889.6001   -79.771965    676.25673    1609.5355 
  347000    298.81231   -8907.7376   -7768.5288   -8907.7376            0    10129.303    25.028902    24.941903    23.017759  -0.12290285   0.11517774 -0.028140269    14369.261    9860.7277    9818.0308    10709.151   -558.45576   -1708.2638    335.46731 
  347500    298.05198   -8880.5939   -7744.2839   -8880.5939            0     10585.93    24.974934    24.992668    23.044887  0.055744729  -0.56536212 -0.0023990023    14384.394    10106.361    10744.291    10907.139   -613.69553   -335.20518   -789.95982 
  348000    290.20586    -8932.077   -7825.6799    -8932.077            0    10273.398    24.993446    25.001233    22.965093  -0.25236401   0.25214383 -0.095564494    14350.128    10234.235    9598.4787    10987.481    155.52987   -1593.4235    727.05423 
  348500    297.91458   -8951.1484   -7815.3621   -8951.1484            0    8914.2046     25.00692    25.103497     22.99587   0.18887429  -0.45470322  0.024959078    14435.913    8837.3998    9080.9146    8824.2993    -933.8637    989.40389   -1995.6343 
  349000    292.69333   -8978.5662   -7862.6858   -8978.5662            0    9358.7737    24.981948    25.041284    23.004942  -0.24173845   0.21531815  -0.12756804    14391.433    9535.6729    8870.6515    9669.9967    364.01471    244.75457    466.70424 
  349500    301.84681   -8897.7132   -7746.9355   -8897.7132            0    9742.9347    24.905456    25.031113    23.080794   0.28215274  -0.49916916 -0.044359502    14388.828    10960.029    9104.1109    9164.6638    397.69881    696.34311   -584.76613 
  350000    295.11654   -8890.7501   -7765.6312   -8890.7501            0    10207.316    24.880119    24.974504    23.079744  -0.39918198   0.30861316   0.05418004    14341.029    11562.589    10193.169    8866.1892    91.329469    73.884065   -7.9872339 
  350500    310.05893   -8903.9583   -7721.8722   -8903.9583            0    10126.048    24.930955    25.029713    23.031086    0.1576103   -0.3551664 -0.037772316    14371.735     11547.34     9552.167    9278.6379   -1203.9202   -380.51685    100.08549 
  351000    295.95071   -8917.1035   -7788.8044   -8917.1035            0    9761.6739    24.936097    25.121238    22.934146  -0.45840588   0.44296625  0.050844908    14366.536    10001.192     8370.022    10913.808    885.57789   -1623.6238   -766.18204 
  351500    301.34574   -8939.6809   -7790.8136   -8939.6809            0    9126.8173    24.948156    25.006462    23.056784   0.11612197  -0.39512779  -0.11884326    14384.323    10079.314    9552.5348     7748.603   -552.09165     727.0929   -544.66479 
  352000     306.5293   -8930.2199   -7761.5904   -8930.2199            0    9153.5706    24.920419    24.998667    23.127733  -0.12536986   0.18351934  0.030924225    14408.052    9017.1622    9751.1361    8692.4136    477.18466    -317.8975   -741.19498 
  352500    293.57206   -8968.0306      -7848.8   -8968.0306            0    8286.1733    24.968685    25.034443    23.079915  0.079221916   -0.3514335 -0.026261766    14426.727    8045.5767    8322.8902     8490.053    497.87122    761.61338    423.30136 
  353000    296.13481   -8928.9164   -7799.9154   -8928.9164            0     10096.24    25.013783    25.014297    22.938021  -0.15862008   0.15203606  -0.06382991     14352.37    10622.259    9930.9417    9735.5195   -413.74954   -794.36912    944.21366 
  353500    294.97134   -8976.4616   -7851.8963   -8976.4616            0     11990.32    25.028103    24.927227    22.844407 -0.073469854  -0.28402291 -0.078422295    14252.196    11434.631    11134.845    13401.485    390.22036    1603.9576   -414.71447 
  354000    303.44115   -8922.6411    -7765.785   -8922.6411            0    10979.488    24.973947    24.890185    23.037383  -0.13721065  0.030979119 -0.016450668    14320.179    10921.764    11966.933    10049.765    1605.9079   -789.19449    873.46123 
  354500    307.75142    -8930.915   -7757.6262    -8930.915            0    8670.0743    25.074434    24.938296    23.117805  0.024137332  -0.26915359  0.077471242    14455.879     7886.565    10442.604    7681.0541   -215.31921   -74.371576   -1025.3456 
  355000    295.77756   -8919.4648   -7791.8259   -8919.4648            0     8874.571    25.207179    24.917543     22.97297  -0.17514978   0.10256758 -0.084897754    14429.344    8963.8402    8618.6686    9041.2043   -344.03942   -649.98599   -1.2255456 
  355500    295.60488    -8950.625   -7823.6444    -8950.625            0    8959.5236    25.259343    24.891597    22.941184  0.042835494  -0.22892777 -0.042670023    14424.164    6994.2954    11093.036      8791.24    143.69116    892.63302    897.60341 
  356000    302.11094   -8973.2192   -7821.4345   -8973.2192            0    9089.3875    25.063866    24.898109    23.052105 -0.083032848  0.034858607 -0.093988526    14385.501    8532.5741    9032.5057    9703.0827    119.87026    1135.9375    145.17031 
  356500    288.76764   -8913.3342   -7812.4203   -8913.3342            0    10960.124    25.140785    24.740639    23.089668   0.20899701  -0.27301939  0.071719142    14361.752    10183.561     12713.35    9983.4616   -1033.8222    268.34554    93.089144 
  357000    304.40275   -8930.3555   -7769.8334   -8930.3555            0    10475.843     25.06767    24.809261    23.123663  -0.29562921  0.086450828  -0.10164041    14380.846    9760.3469    11669.815    9997.3658    528.69989   -625.13659   -507.19894 
  357500    314.48692   -8897.3032   -7698.3356   -8897.3032            0    10218.004    25.086267    25.026389    22.946455   0.26389888  -0.23883028  0.027578382    14406.213    7547.5597    10380.948    12725.506   -475.97845    1519.8136     56.63098 
  358000    307.05747   -8937.5882   -7766.9451   -8937.5882            0     11464.83    25.047687    24.960344    22.879623  -0.45825974  0.020288464  -0.20691646    14304.315    10712.806     10599.93    13081.753    1022.7787   -435.42437    823.72873 
  358500    303.13964   -8909.0613   -7753.3547   -8909.0613            0    11239.042    24.933145    24.926272    23.037533   0.10197148  -0.17137161   0.06334232    14317.604    11378.817    10792.693    11545.617    -166.7841   -255.77623    2045.9862 
  359000    307.31554   -8957.3422   -7785.7152   -8957.3422            0    10947.962    24.878985    24.967782    22.991372  0.017064492 -0.083060936 -0.090212424    14281.621    11502.616    11073.435    10267.834   -679.49409   -615.73042    368.61116 
  359500    309.63503    -8925.339   -7744.8691    -8925.339            0    10744.992     24.87904     24.86296    23.180602  -0.54914146  -0.24339363   0.26670362    14338.746     11554.94     10794.13    9885.9076    994.10827    929.87524   -161.26638 
  360000    292.49186   -8905.9829   -7790.8706   -8905.9829            0    9460.9285    25.081659    24.938561    23.056043   0.18042341  0.074321098 -0.091021888    14421.566    9098.8991    9330.6252    9953.2612   -120.52724    -480.9739     252.2783 
  360500    288.36041    -8896.134   -7796.7726    -8896.134            0     8744.412    25.070263    24.930104    23.130519  -0.30369749  -0.22634025   0.20004288    14456.674    9091.4686    8652.2579    8489.5095    214.93903    1438.1981   -151.82717 
  361000    290.80406   -8885.0709   -7776.3932   -8885.0709            0    10500.249    25.060461    24.981573     23.01202   0.23382713   0.10585258   -0.2317198    14406.669    10426.127    10218.841    10855.778    194.45601    34.281651    929.45031 
  361500    297.49531   -8933.6396   -7799.4518   -8933.6396            0    10903.846    25.007946    24.905112    23.003969  -0.48833034  -0.27638407  0.042587726    14327.463    10976.051    11635.108    10100.378    1077.5228    290.94735    75.349816 
  362000    295.97612   -8909.4031   -7781.0072   -8909.4031            0    10783.671    25.000135    24.892916    23.057446   0.23232247   0.12827049 -0.053434107    14349.254    10118.763    11363.879     10868.37   -567.01331   -178.39868    2.3491773 
  362500    301.74675   -8880.7707   -7730.3745   -8880.7707            0    10879.202    24.940228    24.892167    23.085609  -0.35314431  -0.43589192   0.13050408    14331.923    11226.831     11774.77    9636.0059    669.35722    212.19329   -146.21143 
  363000    288.15826   -8953.8879   -7855.2972   -8953.8879            0    10842.406     25.01959    24.971024     22.87771   0.19766111  0.077041563  -0.10018836    14293.188    9312.1333    10749.208    12465.877    165.45843    758.60662   -88.993221 
  363500    308.60138   -8898.9052    -7722.376   -8898.9052            0    10783.338    25.061889    25.030008    22.901535  -0.40291246  -0.19349819 0.0090590696    14366.116    10324.607    10277.818    11747.587    649.17096     1227.485    1334.5264 
  364000    307.74462   -8977.1906   -7803.9277   -8977.1906            0    8853.1798    24.892177    24.931133    23.216696   0.43755899 -0.027890967  -0.13860387    14408.054    9475.5774     9525.455     7558.507   -1383.9922   -1554.8541    35.751605 
  364500    299.28949   -8891.6524   -7750.6244   -8891.6524            0     9466.671    24.966704    24.965379    23.120388  -0.29630066 -0.045648203  0.078823087    14411.012     9812.553     10310.86    8276.5996   -429.06185   -975.74175   -349.68366 
  365000    310.34668   -8953.3088   -7770.1258   -8953.3088            0    9360.8232    25.033448    24.979098     23.00656   0.30359101   -0.1066308  -0.22944294      14386.3     9103.968    8398.7626    10579.739   -680.94893   -16.365311    960.57897 
  365500    301.37684   -8941.3073   -7792.3213   -8941.3073            0    9637.6213    25.072031    25.016818    22.894556  -0.28149894 -0.010857469   0.19194988    14359.979    10586.964    9154.3352     9171.565     589.1687    843.20201   -163.79397 
  366000    297.72856   -8882.9801    -7747.903   -8882.9801            0     10151.05    25.027615     25.04857    22.935258   0.15749462  -0.18259425   -0.2750439     14378.25    10597.109    9824.0496    10031.991   -565.76724    423.92632   -125.11367 
  366500    297.49787   -8922.3937   -7788.1961   -8922.3937            0    10018.788    24.896381    25.113411    23.002846   -0.1199845 -0.068705728   0.22896397    14382.139    10622.561    8674.0303    10759.772    241.09838    -828.0443   -1296.2658 
  367000    292.06071   -8929.8915   -7816.4229   -8929.8915            0    10125.576      24.9105    24.925356     23.15436  0.067061861 -0.099217722  -0.20605198    14376.614    10524.904    9583.8754     10267.95   -100.41046   -133.81059    540.23966 
  367500     293.1889   -8900.1259   -7782.3561   -8900.1259            0    10549.318    24.934653    25.027204     22.98308 -0.075342032   -0.1275123  0.092675876    14342.468    10416.459    10409.395      10822.1    -170.8885    292.19765   -666.89109 
  368000    314.54095   -8913.7186    -7714.545   -8913.7186            0    11646.119    25.094761    25.048542    22.742386  -0.31292809 -0.090967291  -0.43750197    14295.572    10440.612    11657.058    12840.685    469.69085      1380.37    830.31841 
  368500    293.72735   -8904.5508   -7784.7282   -8904.5508            0    10483.759    25.062094     24.92747     22.97579  0.033462847  -0.16918455   0.12488474    14353.771     9161.612    9752.1175    12537.547    -36.79422     -2009.74    -1548.905 
  369000    294.25261   -8928.6516   -7806.8265   -8928.6516            0    9765.0813    24.963586    24.916256    23.126745  -0.16742505 0.0026209968  -0.19697016    14384.814    10796.591    10183.998    8314.6541   -330.26601   -298.88906    1612.1014 
  369500    300.52325   -8941.8284   -7796.0967   -8941.8284            0     11103.73    24.914019    24.722289     23.19532  0.061998044 -0.099482041   0.27848009     14286.73    11070.817     12162.69    10077.683    -96.04754    302.47433   -368.31646 
  370000     301.1473   -8871.9449    -7723.834   -8871.9449            0    10169.133    25.062863    24.898216    23.039573  -0.15886352  -0.12128856  -0.15515334    14377.168    9306.8141    11281.472    9919.1127    564.55588    176.14263     83.11443 
  370500    293.22594   -8930.9455   -7813.0344   -8930.9455            0    9933.9965    25.269442    24.938297    22.784583  0.082064819  -0.12769205   0.24145383    14358.317    8694.8535     9722.776     11384.36   -535.66746    1310.3973     270.8429 
  371000    299.17827   -8915.3164   -7774.7124   -8915.3164            0    9338.4372    25.160182    24.880101    22.980942  -0.15907055  -0.14637993  -0.33090414    14385.791    8115.1248    10450.819    9449.3681   -1113.0183   -61.959508    963.84798 
  371500    302.38032   -8932.1304   -7779.3187   -8932.1304            0    10241.907    24.930994    24.833099    23.151383  0.010090611 -0.017652262   0.10055055    14333.342    10322.763    11024.398    9378.5595   -297.99927    1210.8694   -235.28035 
  372000    297.17053   -8892.3552   -7759.4056   -8892.3552            0    11269.747    24.873641    24.909699    23.107311 -0.088601302 -0.060791814  -0.19971654    14317.172     11730.33    10981.895    11097.017    590.19188   -676.40188   -846.39279 
  372500     298.8643   -8963.9443   -7824.5373   -8963.9443            0    10273.919    24.931938     25.10642    22.853992  -0.12935689   -0.1839409   0.20285367    14305.496    10985.652    8958.7082    10877.396   -444.49157   -310.17504   -696.51344 
  373000    301.17501   -8988.3235    -7840.107   -8988.3235            0     11355.27    24.915948    25.050589    22.860119 -0.0028183507  -0.07406315  -0.21616295    14268.353    11291.464    10835.099    11939.246    591.81115    577.26253    393.95175 
  373500    303.87329   -8950.7663   -7792.2627   -8950.7663            0    10030.576      24.9412    24.986547    23.025173 -0.070801636  0.039714714   0.18036107    14349.161    10433.413    9431.5257     10226.79    338.66223    13.426612   -67.370641 
  374000    303.37788   -8868.3033   -7711.6885   -8868.3033            0    11715.729     24.80974    24.987733    23.130412   0.22062414  -0.18551274  -0.46787787    14339.448    12450.105    11426.352    11270.729    -1126.782    322.44202   -32.021484 
  374500    304.47218   -8903.3911   -7742.6043   -8903.3911            0    10649.034    24.958363    25.073056     22.92515  -0.21098933  -0.03632607   0.22928352    14346.156    10464.201    10646.161    10836.742    689.86886     666.7203   -813.85497 
  375000    311.54777   -8930.7345   -7742.9723   -8930.7345            0    11599.436    24.917589    25.106912    22.862357 -0.021236425  -0.19595125  -0.29914691    14302.776     13169.83    9189.3762    12439.101    1575.9911      358.083   -426.09125 
  375500    299.66896   -8954.7917    -7812.317   -8954.7917            0    9636.2483    24.865478    25.042637    23.095226  -0.07646229 -0.085923894   0.18693508    14381.331    10499.833    8395.0541    10013.858    878.28431    517.55395   -506.75222 
  376000    300.30518   -8934.2368   -7789.3365   -8934.2368            0    9880.4193    24.875007    24.910098    23.203194  -0.12661327 -0.023953478  -0.18437671    14377.601    11279.234    9677.6607    8684.3635    630.22303   -1160.1865    170.19601 
  376500    309.67379   -8903.1365   -7722.5188   -8903.1365            0     10150.45    25.008313    24.980097    23.026499   0.14427827 -0.075963657  0.098854661    14384.886    10270.487    9504.9783    10675.884    645.68639   -173.15692    36.945725 
  377000    296.16862   -8989.9947   -7860.8648   -8989.9947            0    9668.5636    25.053448    25.085953    22.807707  -0.33553192  -0.14245613  -0.11852051    14334.407     9958.549    8714.5789    10332.563    81.086155    185.46218   -1596.2657 
  377500    294.15345    -8932.229   -7810.7819    -8932.229            0    9702.5382    25.062472    24.989424    22.941985    0.2334088 -0.068911967  0.036889531     14368.49    9349.5205    10794.139    8963.9547   -810.35707    80.286601   -15.111789 
  378000    302.48967   -8936.5394   -7783.3109   -8936.5394            0    10311.903    25.091723    24.906649    22.983114  -0.25085557  -0.12520908 -0.062961145    14363.314    9934.9297    10183.693    10817.087   -438.84408   -1090.3854    229.58057 
  378500    299.94653   -8980.6667   -7837.1338   -8980.6667            0    10392.667     25.01783    24.697271    23.145936   0.31791556  -0.10122148 -0.073044164    14301.229     10406.52    11622.398    9149.0844     22.30608    260.25495       365.92 
  379000    304.23606   -8954.1145   -7794.2279   -8954.1145            0    10023.897    25.006032    24.814232    23.126452  -0.24220409  -0.15104638  0.048228547     14350.09    9236.9582    10734.158    10100.575    726.61586   -569.62324   -1248.6032 
  379500    300.43535   -8963.6435   -7818.2469   -8963.6435            0    8943.0931    25.155292     24.90292    23.025613    0.1218684  0.034178818    -0.132859    14424.171    8445.9743    9170.1024    9213.2025   -237.31861    60.234606   -69.354772 
  380000    290.96361   -8948.2261   -7838.9401   -8948.2261            0    9044.5943     25.30306    24.875092    22.891459  -0.47361993  -0.18191015  0.076627899    14408.249    6498.8569    10738.417    9896.5091    1769.1791   -335.46246   -1180.9723 
  380500    304.59896     -8927.72   -7766.4499     -8927.72            0    8712.9992    25.107195    24.937033    23.070312   0.11958001 -0.098609077 -0.092235852    14444.298    7836.0508    9438.1742    8864.7725   -189.45965   -41.141442   -943.28922 
  381000    294.26059   -8989.3088   -7867.4533   -8989.3088            0    9408.5703    24.971409    24.972193    23.032204 -0.047556879  -0.14250439  0.018773962    14362.672    9340.5675    10725.871    8159.2723   -245.90689   -420.81514    366.68368 
  381500    314.80625     -8927.08   -7726.8951     -8927.08            0    9873.0985    24.825708    25.014722    23.151844  0.042469402  -0.11606547  -0.23832115    14377.485    10476.208    10436.042    8707.0453   -38.231441    1288.6277    126.32181 
  382000     294.1964    -8943.965   -7822.3541    -8943.965            0    10351.435    24.824861    25.014414    23.101122 -0.077618944   -0.1942285  0.010382682     14345.32    11707.744    10543.113    8803.4482   -219.71699    208.96365    965.91857 
  382500    320.41477   -8929.3469   -7707.7797   -8929.3469            0    9876.7134    24.941213    25.146341    22.963965  0.098646692  0.037784945  0.007636413    14402.545    10795.548    8500.3871    10334.205    172.46005   -830.66341    1574.8548 
  383000    295.71884   -8880.9841    -7753.569   -8880.9841            0    9690.6735    24.950238    25.148015    22.989278   -0.1978966  -0.21088223  -0.13009024    14424.599    8870.4568    9548.2057    10653.358    1065.9278    526.88923    1122.4521 
  383500    305.26819   -8930.0091   -7766.1876   -8930.0091            0    10034.116    24.946346    24.948651    23.114715  0.043789804  0.093823793 -0.00070511544    14386.083    10183.716     10647.24    9271.3919   -291.09715   -593.54481    426.53008 
  384000    292.43917   -8947.0932   -7832.1817   -8947.0932            0    11712.058    25.045918    24.889243    22.911435  -0.13727658  -0.26637599 -0.094926062    14282.392    10095.362    12425.454    12615.357    5.5576302    788.73772   -825.57457 
  384500    307.00747   -8936.5685    -7766.116   -8936.5685            0    9976.9741    25.075525    24.980122    22.914142 -0.064231753  0.013494524  0.094710901    14353.182    10749.582    7683.3411    11497.999   -230.35221    516.28687   -676.92668 
  385000    290.86414   -8966.5866   -7857.6798   -8966.5866            0    10546.881    25.021556    24.874079    23.000034  -0.13291755  -0.41824734  -0.27462714    14314.949    9782.6905    10557.192    11300.759    431.93555   -88.676768    345.07064 
  385500    294.18508   -8974.4381   -7852.8704   -8974.4381            0      10605.8    24.884128    24.867201    23.124506 -0.018971846   0.13735666   0.11123551    14309.413    11609.298    10166.501    10041.602    772.60138    -1767.158   -791.35892 
  386000    292.21456   -8959.6368   -7845.5816   -8959.6368            0    10082.571    24.954859    24.879816    23.067537 -0.095532357  -0.29495299  -0.13376005    14321.995    10552.766    10840.317    8854.6299    307.55361    5.2008874   -147.73419 
  386500    296.36395   -8919.9197   -7790.0451   -8919.9197            0    9192.9547    25.121557    25.014259    22.955603  -0.11036662   0.24550086    0.1276735    14425.236    9529.5464     8288.444    9760.8737    1124.2381    129.82423   -1500.1172 
  387000    295.03518   -8918.7816    -7793.973   -8918.7816            0    10520.912    25.150816    24.904357    22.933788  0.027960321  -0.21938115  -0.17357984     14364.92    8997.8282    10881.499     11683.41   -340.17672     840.2646    180.52844 
  387500    297.76344   -8922.9649   -7787.7549   -8922.9649            0    9611.2909    25.068172    24.968511    23.007767  -0.14178905  0.060313376   0.10718107    14400.905    8575.9414    10666.628    9591.3031   -171.88472    467.75211    15.728281 
  388000    296.96076   -8981.5063   -7849.3565   -8981.5063            0    10119.397    25.110225    24.804468    23.077905   0.20987138  -0.42754458  -0.16460327    14373.976    8766.1916    11775.446    9816.5545   -865.51493    590.77898    428.81647 
  388500    290.15247   -8960.2953   -7854.1018   -8960.2953            0     10839.07     25.05359     24.83126    23.018812  -0.27121529   0.10376783  0.024312255    14320.284    9982.1429    12014.998    10520.068    730.77733    111.21563   -817.06822 
  389000    298.48722   -8899.6657   -7761.6963   -8899.6657            0     11160.87    25.094384    24.849339    22.955753   0.37520072  -0.42413949  -0.18034687    14314.722    9500.5386    12338.468    11643.605   -2127.0204    406.40218    360.93096 
  389500    288.36317    -8927.022   -7827.6501    -8927.022            0    11090.924    25.057334    24.880263    22.970139  -0.26964681   0.09702342  0.046463413    14320.344    11074.711    10929.266    11268.794   -23.381198    -805.2001     230.9809 
  390000    292.98228   -8922.8799   -7805.8979   -8922.8799            0    11609.523    24.991172    24.856485    22.995717   0.24875155  -0.22877635 -0.080096751    14284.772    11771.847    12051.133     11005.59    82.955466    330.41266    230.51908 
  390500    306.68466   -8889.1399   -7719.9181   -8889.1399            0    10112.813    24.985008    24.990497    23.082874  -0.21941939 -0.039241916  -0.01107241    14412.664    10412.411    10128.846    9797.1807    705.47917   -1016.3972   -220.23956 
  391000    307.53012   -8911.1246   -7738.6795   -8911.1246            0     10333.47    24.900013    25.005204    23.076987  0.016402214    -0.159067 -0.056976632    14368.423    9537.5177    10749.668    10713.225    358.48189    399.96394   -420.67547 
  391500    308.50421   -8871.7142   -7695.5555   -8871.7142            0    10063.902    24.850393    25.149609    23.075927  -0.12687673  -0.12652406   0.10941421    14421.939    11429.599    8483.4013    10278.705    4.2819276    34.089714   -1318.7452 
  392000    293.05056   -8994.5396   -7877.2972   -8994.5396            0    9654.9117    24.913735    25.123145     22.88472 -0.0028019738 -0.055752882  -0.29369849    14323.807    9924.9922    8922.0261    10117.717    390.79333   -895.91577    2020.0199 
  392500    293.19407   -8942.2948   -7824.5053   -8942.2948            0    10066.873    24.958228    25.097634     22.90958   0.05046076 -0.035169207   0.23249591    14350.388    10073.891    8892.3595    11234.368   -1208.7433   -922.57062   -2103.8789 
  393000    301.67644   -8948.1169   -7797.9887   -8948.1169            0    9014.5859    24.963497    25.058286    22.997795 -0.095303537 -0.049222927  -0.12441833    14386.097    9684.0262    8423.9686     8935.763   -748.22815    485.18746   -93.113156 
  393500    308.91149   -8899.6001   -7721.8887   -8899.6001            0    9465.2967    24.930442    25.017618    23.178918  -0.07662383  -0.14401878 0.00052659629    14456.697    9511.8506    9830.6058    9053.4337    242.92418    158.74283    1622.6426 
  394000    291.28503   -8949.3083   -7838.7969   -8949.3083            0    10459.413    24.958976    24.907477    23.063096  -0.15826726  0.036300073  -0.03682346    14337.523    10954.164    11077.018    9347.0573   -676.48246   -202.60898     431.5321 
  394500    296.69897   -8959.9816   -7828.8299   -8959.9816            0    10433.385    24.999001    24.927361    22.963644 -0.0069761896  -0.22721276  0.028855841    14310.004    10014.785    10244.642    11040.726    -268.2731    833.91767     336.6808 
  395000    298.00852   -8922.5769   -7786.4325   -8922.5769            0     10074.58    25.108848    24.827142    23.044707  -0.30945226  0.022375479  -0.20951843    14365.631    10407.095    9740.2473    10076.397    235.59055   -523.54699     1389.517 
  395500    293.60265   -8955.3051   -7835.9579   -8955.3051            0    9372.9381    24.987185    24.916577     23.08267   0.17714119  -0.23633828   0.12909065    14371.157    9497.9075     9699.818    8921.0889   -1133.1744    -2.835151    213.10188 
  396000    281.92963   -8940.5695   -7865.7252   -8940.5695            0    9138.0316    25.027915    24.957769    23.031191   -0.3518069    0.1024448   -0.2123993    14386.224    8826.9878    10191.834     8395.273   -498.56725   -522.19676     728.9656 
  396500    309.32902   -8996.7023    -7817.399   -8996.7023            0    10238.658    25.026881    25.030927    22.845539   0.27238162  -0.41287875   0.25573883    14311.497    10593.546    9293.6667    10828.763   -354.43601   -43.861721   -999.75218 
  397000     296.2377   -8928.3689   -7798.9757   -8928.3689            0    9378.3097    24.993243    25.063076    22.978997  -0.23949771   0.13852868    -0.209828    14394.217    9673.1358    8708.2366    9753.5568    639.83299   -528.60746    417.86805 
  397500    299.89313   -8905.7407   -7762.4113   -8905.7407            0    10531.322    24.889486    24.990027    23.073967  0.028568217  -0.34816202   0.21348419    14351.752    11081.363    9983.0868    10529.518   -1217.1947   -75.220646   -325.11442 
  398000    309.01936   -8997.9832   -7819.8604   -8997.9832            0    9827.3115    24.816584    25.009686    23.142752  -0.11300013   0.13424299  -0.17503362    14363.664    10986.115     8977.575    9518.2448   -196.18727   -543.25665   -359.12968 
  398500     304.6644   -8893.4892   -7731.9696   -8893.4892            0    11423.804    24.850678    25.074952    22.967265  0.096043246  -0.37149958   0.18242608    14311.582    12847.588    10629.218    10794.606   -841.94067    415.74969   -1674.4761 
  399000    281.86505    -8950.586   -7875.9879    -8950.586            0    10091.396    24.982147    25.072188    22.861549  -0.12940639   0.02404197 -0.087223821    14319.494    9566.7592    10388.801    10318.627   -515.85071   -2063.0272   -828.31179 
  399500    303.12657   -8933.7335   -7778.0767   -8933.7335            0    10164.972    24.854636    25.088555    23.019825 -0.083362996  -0.17435644   0.28277549    14354.401    10970.693    9300.1605    10224.063    770.78585   -444.94586   -260.42894 
  400000    294.45395     -8957.11   -7834.5173     -8957.11            0    9710.0783    24.875746    24.952948    23.145494  -0.10209645 0.0033136667  -0.22230695    14366.945    10562.574    8778.2656    9789.3951   -302.21615   -1425.9497   -926.45475 
  400500    292.52572   -8916.1679   -7800.9265   -8916.1679            0    9411.9365    25.039938    24.957752    23.012301  0.014895976  -0.15866732   0.14776689    14381.321    10066.551     8704.179    9465.0794    1295.7005   -84.203946   -780.67552 
  401000    287.83603   -8936.6253   -7839.2631   -8936.6253            0    8028.7005     25.22922    25.031385    22.854522   -0.2428934  0.047328325   -0.1300254    14433.141    6785.1488    8848.9734    8451.9793     1453.171   -17.091738     813.5247 
  401500    312.52131   -8956.4342   -7764.9604   -8956.4342            0    8909.6761    25.178891    24.927288    22.962893  0.033228857  -0.19203309 0.0086701272    14412.463    8502.8881    9110.0316    9116.1084   -2063.1884    -785.3226   -766.40643 
  402000    306.58938   -8912.7891   -7743.9305   -8912.7891            0    9980.9536    25.017759    24.796679     23.16728  -0.27555163    0.1477729  -0.13612831    14371.992    8394.7533    12089.153    9458.9549    490.00317    767.98338   -234.88172 
  402500    293.98954   -8925.0428   -7804.2206   -8925.0428            0    10113.426     24.95916    24.829747    23.220931  0.087964992  -0.17107392  0.051306065    14390.699    9446.1842    11577.741     9316.353   -617.94147    135.51439   -225.48783 
  403000    293.75835   -8939.3426   -7819.4018   -8939.3426            0    9996.5465    25.074889    24.926741    22.996882  -0.18959091   0.08379537  -0.18019891    14373.862    10696.532    9311.7027    9981.4046   -15.690549   -198.39721    1351.5657 
  403500    303.85445   -8922.7829   -7764.3511   -8922.7829            0    9554.2166    25.096117    25.129885    22.822696  0.083859724  -0.23792088   0.06320135     14393.42    8473.0892    8982.8096    11206.751   -91.674406    1506.2268    1227.5559 
  404000    297.50324   -8980.3247   -7846.1067   -8980.3247            0    8675.6672    24.923954     25.03748    23.059269 -0.099668907 -0.022341279  -0.12537634    14389.745    7990.5839    9014.9535    9021.4642    1189.4419   -277.70653   -520.92615 
  404500    302.84552   -8974.4138   -7819.8286   -8974.4138            0    7718.4103    24.815045    25.033797    23.228381 -0.069955662  -0.30347995  0.064970096    14429.814     9815.357    7143.9845    6195.8894   -145.70495   -985.73067   -454.46889 
  405000    299.83955   -8934.4961    -7791.371   -8934.4961            0    9701.5854    24.937814    25.090444    22.991034 0.0022354616  0.078476658  -0.18477036    14385.509     10129.86    9154.0607    9820.8351    432.08206    -804.1382    181.73431 
  405500    291.26929    -8888.459   -7778.0076    -8888.459            0    11653.614      25.0271     25.01111    22.868101 -0.084608262  -0.22608649  -0.02888844    14314.415    10051.965    12543.486     12365.39   -768.54724   -48.809696   -870.73983 
  406000    302.92601    -8922.785   -7767.8929    -8922.785            0    11435.268    25.038781    24.929712    22.878071 -0.085683879  0.023582278  0.026047721    14280.712    11630.058     12016.21    10659.536   -642.51793    402.57361   -1067.3805 
  406500    307.52789   -8928.4866   -7756.0501   -8928.4866            0    10789.902    24.936366    24.810808    23.117065  0.019218242 -0.094198591  -0.23254659    14302.329    11105.153    12165.194     9099.358   -1979.2964    162.91935   -114.47838 
  407000    298.77743    -8971.248   -7832.1722    -8971.248            0    10755.775    24.952156    24.805133    23.139647   -0.2483854  0.025342099  0.045174035    14322.089    10377.926    11988.042    9901.3562    468.28172   -280.22412   -654.57795 
  407500    306.15185   -8948.8352   -7781.6448   -8948.8352            0    9911.6643    25.126544    24.952543    22.965212  0.048863121  -0.27910413  -0.10434323    14398.525    9256.4517    10044.854    10433.687   -606.42126    719.77006    589.02636 
  408000    295.91005   -8905.9761    -7777.832   -8905.9761            0     9470.866    25.271706    25.052668    22.729266  0.060753285    0.2473652  0.093447696    14390.436    8548.6308    9474.8802    10389.087   -640.72024    -939.3745   -52.627333 
  408500    306.19554   -8959.1578   -7791.8008   -8959.1578            0    9937.0886    25.001591    24.928005    23.034583  -0.17772143  -0.20006209 -0.0013782259    14356.069    10064.422    10064.453    9682.3913   -287.16981    913.13962   -51.963873 
  409000    299.01087   -8902.4417   -7762.4759   -8902.4417            0     10058.46    24.937097     24.92615    23.172667   0.15327042   0.16823757 0.0059477529    14403.801    9521.5678    11273.653     9380.159    -161.7707    583.22143    473.73158 
  409500    283.25567   -8864.6919   -7784.7921   -8864.6919            0    9419.7625    24.979692    25.059677    23.049089   -0.2976744  -0.41285765  -0.10540134    14428.338    9801.6569    9114.6058    9343.0249   -582.71462    262.62073      813.644 
  410000    304.53029    -8923.533   -7762.5247    -8923.533            0    10044.426    25.040049    25.007529    22.931892   0.20767083   0.11987352  0.021841889    14359.716    9766.8303    9613.4321    10753.016   -551.37619   -966.36387   -1436.0236 
  410500    303.26348   -8909.7407    -7753.562   -8909.7407            0    11951.775    24.909833    25.031481    22.956907  -0.44781753  -0.44201263 -0.039412461     14314.32     11923.42     10779.09    13152.814    -722.7131    1544.8652    229.78836 
  411000    302.68304   -8890.6783   -7736.7125   -8890.6783            0    11491.679    24.925198    24.937908    23.032312   0.10415589   0.20725847  0.033126948    14316.477    11786.283    11024.935    11663.819    971.27739   -957.49692    1176.1175 
  411500    300.35015   -8895.8774   -7750.8057   -8895.8774            0    11586.771    24.875528    25.061741    22.979796  -0.17898488  -0.30440397 -0.086293822    14326.158     12311.26    10631.275    11817.779    631.44571    147.07315    -1252.184 
  412000    304.45497   -8926.4697   -7765.7486   -8926.4697            0    10579.232    24.946502    25.067561    22.905818 -0.025222621   0.15768229   0.05994007    14324.106    10551.133    9199.0404    11987.521   -178.23161   -536.40213    133.21096 
  412500    310.03633   -8928.8973   -7746.8975   -8928.8973            0     10395.36    24.963691    24.988754    23.006473  0.050922084  -0.21103808 -0.020553773    14351.703     11066.68    9944.5022    10174.898    -1030.081   -834.27918   -565.87477 
  413000    289.03352   -8944.6485   -7842.7209   -8944.6485            0    10381.671    25.022403    24.814217    23.063116  -0.17163948  0.024910006  -0.17886982     14320.15    10704.496    10993.632    9446.8861    442.19501   -73.803198    1382.5149 
  413500    297.73215   -8910.4996   -7775.4089   -8910.4996            0    10363.868    25.095942    24.756349    23.130068   0.13430064  -0.29223795   0.18620268    14370.339    8659.4055    13126.046    9306.1534    407.76236    25.543757   -680.03026 
  414000    308.52538   -8974.7138   -7798.4743   -8974.7138            0    9674.4052    25.103211     24.89347    23.014269  -0.23190117  0.025899558  -0.13247316    14381.755    9594.1491    9692.6944    9736.3722   -663.22004   -485.92623    411.08691 
  414500    294.35373   -8927.0113   -7804.8006   -8927.0113            0    11139.695    25.087076     24.79005    22.991794   0.19082731  -0.12553396   0.23381921    14298.823    8868.3956    13428.594    11122.094   -521.60434    127.22549    172.67369 
  415000     301.0672   -8951.1029   -7803.2974   -8951.1029            0    9824.3932      25.0582    24.824155    23.037693  -0.25988235  -0.22540694  -0.25188627    14330.566    9709.7401    10046.228    9717.2117    913.10215    416.77408    1316.6133 
  415500    310.05823   -8973.9207   -7791.8373   -8973.9207            0    10640.965    25.085183    24.899044    22.944967  0.080885077 -0.015222091   0.11195545    14331.359    8983.6032    11918.549    11020.742    211.41801    217.38852   -902.64522 
  416000     302.0901   -8922.4046   -7770.6994   -8922.4046            0     10630.28    25.132633    24.936207    22.896611  -0.43047992  -0.21995229  -0.28273019    14349.593     8521.568    11111.001     12258.27    1083.1582    1607.4488    1065.6127 
  416500    300.91913   -8931.1064   -7783.8654   -8931.1064            0     10673.58    25.010519    24.875125    23.028334   0.22952104  0.061688733   0.14587303    14326.843    9914.7823    11666.872    10439.084   -706.85829   -803.53876    63.601568 
  417000    302.66207   -8940.5528    -7786.667   -8940.5528            0    10914.668      24.8962    24.906869    23.089066  -0.27060401  -0.15340206 -0.092523936    14317.216    11982.939    10779.491    9981.5733    255.51054   -236.18831   -553.08325 
  417500    310.33365   -8942.2965   -7759.1631   -8942.2965            0    11628.018    24.923504    25.003664    22.903392   0.10372396  0.084124347    0.1687755    14272.911    10438.007     12005.72    12440.327   -828.95211   -344.99572   -1069.9551 
  418000    284.36476   -8904.0554   -7819.9272   -8904.0554            0    10648.493    24.994379    25.001746    22.958743  -0.10271075     -0.20781  -0.14623249     14346.99    10181.222    10519.913    11244.343   -307.74724    119.53016   -66.898624 
  418500    300.91293   -8856.3892   -7709.1719   -8856.3892            0    9944.6869    24.935801    25.045082    23.019817  0.084362625   0.10259834  0.062923446    14376.317    11985.739    8632.9826    9215.3385    -819.8496    351.52111    827.15896 
  419000    299.98653   -8915.8225   -7772.1371   -8915.8225            0    10622.573     24.84358    25.002499    23.159681 -0.009052009  -0.43498447  -0.21210137    14385.672    11855.304    10608.076    9404.3401   -1362.2535    1019.4086    1130.8441 
  419500    309.44508   -8934.5977    -7754.852   -8934.5977            0    10136.119    24.914844    25.056905    23.020852  -0.13846897   0.13522069   0.11372962    14371.662    10201.185    10057.477    10149.695    280.44728   -35.638415   -392.83321 
  420000     298.4844   -8948.2714   -7810.3127   -8948.2714            0    10675.319    24.985793     25.08235    22.853835  0.057099979  -0.35310453  -0.19987062    14322.553    10106.786    9123.7624    12795.408    520.91388    841.95824    710.91881 
  420500     304.5033   -8950.8025    -7789.897   -8950.8025            0    10275.711    24.944587    25.049275    22.928748  -0.24901463   0.18673985   0.11399219    14326.886    10803.592    9128.5229    10895.019    524.26646   -149.47404    790.25864 
  421000    299.00163   -8836.0309   -7696.1003   -8836.0309            0    10521.434    24.994364    24.924167    23.147538   0.13490374  -0.27156377 -0.055999402    14420.076    11318.857    10036.724    10208.723   -223.92164    14.268908    26.432979 
  421500     294.6522   -8930.6138   -7807.2652   -8930.6138            0    10747.825    24.993205    24.860605     23.08941  -0.37939929  0.018588732  0.015400365    14346.517    10527.501    11230.717    10485.258    1135.4782   -473.82649    -777.5515 
  422000      298.499   -8913.5673    -7775.553   -8913.5673            0     10620.56    24.978354    24.968255    22.982408   0.22414214  -0.13797255 -0.023399684    14333.344    9977.2781    11132.345    10752.057   -1230.9347    1378.1444   -88.956789 
  422500       291.92   -8922.0585   -7809.1264   -8922.0585            0    10241.957    24.999481    24.961377    23.010896  -0.45026674 -0.013649888 -0.026924444    14359.293    10738.324    10400.251    9587.2962    1725.2849    -718.1813     553.0129 
  423000    290.61369   -8911.7408   -7803.7889   -8911.7408            0    8918.6576      25.0545    24.988875     23.08239   0.24553129  -0.21215852 -0.020835335    14451.509    8923.9058    8431.5549    9400.5123    316.40925    556.39226    890.97877 
  423500    301.68902   -8940.8285   -7790.6524   -8940.8285            0    9138.3866    25.083632    24.959952    23.041968  -0.44617918   0.16963549  -0.13842012    14426.259    9904.5019    8421.3573    9089.3007    523.10695   -445.07718    362.01261 
  424000     296.6428   -8947.9698   -7817.0322   -8947.9698            0    10170.014    24.967339    24.964331    23.007042   0.21231928  -0.12533099 -0.012659617    14340.126    10876.107    9311.4621    10322.473    -1170.901   -567.30687   -319.33443 
  424500    307.56473   -8941.4177   -7768.8407   -8941.4177            0    10983.891    25.044722    24.934341    22.897997   -0.5716419  -0.18930318  -0.15322404    14299.195    10559.307    11308.115    11084.251     686.2187    313.58696     1005.643 
  425000    312.00276   -8921.8065   -7732.3097   -8921.8065            0    10084.537    24.988179    25.012494    23.009572   0.16466898 -0.044732135 -0.049622458    14381.366    9503.8129    9780.1453    10969.653   -1047.5185   -247.63285   -436.67242 
  425500    290.59776   -8886.3816   -7778.4904   -8886.3816            0    12033.173    24.895761    24.924428    23.034869  -0.33634962  -0.17598689  -0.16805756    14293.427    12147.521    12406.403    11545.596   -28.755773    1170.4263   -572.16441 
  426000    308.04009   -8950.5625   -7776.1732   -8950.5625            0    11186.462    24.976402    24.948596    22.971675    0.2955399  -0.17437087    0.2050612    14314.252    12032.001     9456.657    12070.727   -908.75307    986.89002    816.67688 
  426500    300.54471   -8941.8399   -7796.0265   -8941.8399            0    10284.721    24.977495    25.001972    23.008265  -0.30858072   0.05707211  -0.18087222    14368.354    10398.216    9313.9046    11142.042   -114.26875   -825.02737    871.67995 
  427000    304.58894   -8967.7265   -7806.4946   -8967.7265            0    9986.4273    24.992749    25.033927    22.941135  0.099631363  -0.25912787   0.14730605    14353.503    10406.885    9187.2966      10365.1   -104.03231   -454.97992    -1381.595 
  427500    292.98808   -8899.7419   -7782.7377   -8899.7419            0    8706.9465      24.8902    25.166043    23.083724  -0.14373272   0.16571802  -0.36420828    14459.364    9432.6421    7995.1306    8693.0668   -340.90051   -1069.8642    29.769777 
  428000    301.94867   -8942.0301   -7790.8641   -8942.0301            0     8948.015    24.980951     25.03414    23.084549  -0.20449606  -0.29412509   0.10144483    14436.537     10042.53    8621.6317    8179.8832    411.66836   -576.22491    74.445258 
  428500    317.07217   -8942.8411   -7734.0174   -8942.8411            0    9546.6004    25.017058    24.909062    23.036787  0.050497026  0.010993322  -0.10058203    14355.407    8758.6598     10812.18    9068.9618   -1051.4752   -552.74243    249.63232 
  429000    304.49292   -8934.3107   -7773.4448   -8934.3107            0        10796    25.001429    24.941553    22.985817  -0.28882769   -0.3758405  0.060739885    14333.368    10840.724    10539.673    11007.603    1253.2811    1534.7897   -1042.8483 
  429500    301.34746   -8906.9477   -7758.0738   -8906.9477            0    10115.491    25.088694    24.911288    23.016736   0.13027154   0.11173463  -0.13874788    14385.269    10822.922    9258.4692    10265.081   -111.11237   -401.44747    -27.58901 
  430000    294.82955   -8970.1707    -7846.146   -8970.1707            0     9810.002    25.038729    24.959931    23.026075  -0.24737514  -0.14358787   0.19380464     14390.49    8685.2624    10002.909    10741.834    193.04773   -447.84071    -1544.956 
  430500    293.19831   -8945.5243   -7827.7187   -8945.5243            0    8184.2393    25.039661    24.938056    23.171984   0.16208926  0.072856771  -0.16823648    14469.525    9017.7849    8689.4575    6845.4755    177.77004   -461.66058    1103.8466 
  431000        306.9   -8917.3613   -7747.3185   -8917.3613            0    8996.2048    25.030673    25.001978     23.06358  -0.32173244  -0.16819333   0.15951064    14433.565    8688.8997     10122.23    8177.4843   -185.78757    1021.0785     452.4177 
  431500    315.91108   -8963.5148   -7759.1177   -8963.5148            0    9458.4757    24.971157    25.017614    23.042476   0.17259125  -0.11647666  -0.13820275    14395.067    9246.4288     9389.036    9739.9625   -1066.6575   -377.10171    0.9362255 
  432000    306.92412   -8973.0394   -7802.9046   -8973.0394            0    10352.203    24.866352    25.051939    23.026234    -0.630278 -0.090555499   0.24176802      14344.2    11418.693    10597.106    9040.8099    1564.2064    194.42541   -1294.3207 
  432500    299.98127   -8957.0838   -7813.4183   -8957.0838            0     10760.84    24.957469     24.99341    22.929962   0.29815162 -0.032087981  -0.16545124    14303.074    10805.066    10589.462    10887.993   -1067.4547   -349.50369    1618.5425 
  433000    304.15076   -8930.1221   -7770.5607   -8930.1221            0    11419.513    24.947174    24.942204    22.986408  -0.41124758 -0.060960127   0.12143917    14303.005      10293.4        11498     12467.14    767.97632   -936.37667   -1707.6577 
  433500    295.27946   -8955.6987   -7829.9587   -8955.6987            0    10528.416    25.017632    24.881515    23.028602   0.49754803  -0.14126052  -0.14313846    14334.766    10046.864    10995.744     10542.64   -735.82904    475.76395    285.80377 
  434000    308.78122   -8951.8271   -7774.6122   -8951.8271            0    9721.4978    25.076591    24.931964    22.963758  -0.33533992   -0.1952857  0.081883748     14357.14    9401.9626    9527.5108     10235.02   -40.879137    319.33827    314.72427 
  434500    314.06155   -8932.7984   -7735.4525   -8932.7984            0    9227.8171    25.145305    24.977968    22.956382   0.23973486 -0.052040474  -0.10372135    14418.413    9512.8855     8482.732    9687.8336   -514.36173   -966.18264    212.11861 
  435000    297.98804   -8957.1369   -7821.0706   -8957.1369            0    9812.2546    24.903457    24.875421    23.170704  -0.37355082  -0.27052461  0.067184632     14353.88    11167.615    10278.097    7991.0522    1188.6017    1076.7561    -588.5659 
  435500    292.46365   -8990.5904   -7875.5856   -8990.5904            0     9074.921    24.937442    24.912171    23.150389   0.10809499  0.010652229   -0.0755072    14382.082    9713.9915    9598.4423    7912.3292   -485.23045    569.77179    914.66539 
  436000    301.92249   -8949.8716   -7798.8053   -8949.8716            0    9134.4446    24.980122     25.01725    23.045033  -0.30127363  -0.20202487  -0.03722422    14401.624    9930.8819    9090.3622    8382.0898    438.77627   -455.67469    1596.3724 
  436500    295.79369   -8911.5818   -7783.8814   -8911.5818            0     10292.94    25.027441    25.105712    22.859876  0.052681488 0.00034571951  0.032587359    14363.585    9979.1171    9859.9893    11039.715   -917.69041    172.20223   -772.19165 
  437000    293.78028   -8925.3539   -7805.3295   -8925.3539            0    11528.506    24.846994    25.006166    22.963199 -0.0031119584  -0.25545314  -0.03553204     14267.68    11821.282    10660.556    12103.681    123.17309    1099.6903   -633.55872 
  437500    306.65858   -8924.0103    -7754.888   -8924.0103            0    10269.827    24.844202    24.973764    23.140537  -0.20495603  0.083525333 -0.091645445    14357.621    12380.384     8919.092    9510.0043    143.26786    -1327.463   -752.15448 
  438000    282.34358   -8946.9293   -7870.5068   -8946.9293            0    9472.8015    24.954986    25.037003    22.997865  0.075927778  -0.18873241  0.098430415    14369.021    8865.0987    9672.9664    9880.3393   -2078.6439   -617.09026    470.92914 
  438500    295.58597   -8915.8775    -7788.969   -8915.8775            0    8954.1934    24.952869    25.098097    23.049628  -0.48108178  0.086853812  -0.25298169     14435.28    9014.4518    9200.6466    8647.4817    1170.5934    61.511257    -648.5868 
  439000    316.09804    -8963.311   -7758.2011    -8963.311            0     9097.029    25.005555    24.974592    23.084888   0.20072228   -0.2319946   0.14058718    14416.594    8829.7534    8599.7476     9861.586   -276.16105    199.82133   -722.58734 
  439500    288.39515   -8881.2823   -7781.7884   -8881.2823            0    10702.875    25.027804    24.852031    23.063817   -0.2879935  0.080234502  -0.11695879    14345.504     10136.06    11492.776    10479.787    671.91767   -646.79841   -475.83564 
  440000    302.28757   -8959.1708   -7806.7127   -8959.1708            0    9837.7557    25.132214    24.863521    22.971472     0.257535  -0.24337319   0.12791421    14354.306    9574.7157     10293.82    9644.7314   -602.01561     583.9132    538.10252 
  440500    285.95357   -8975.7885   -7885.6031   -8975.7885            0    9754.3708    25.088666    24.865422     22.98439  -0.19985686  0.025320607  -0.22214619    14338.588    9601.1332    9973.8729    9688.1063    -668.0619   -263.52876    979.44814 
  441000     296.0687   -8953.6865   -7824.9376   -8953.6865            0    9639.3358    25.125697    24.925078    22.943631  0.072585453 -0.090595757   0.12222476    14368.677    8873.0932    9663.8117    10381.102   -437.19846    573.61906   -1011.5968 
  441500    293.69715    -9001.769   -7882.0615    -9001.769            0    9771.5735    24.978312    24.890893     23.02746  -0.21772222  -0.12119006 -0.098469991     14316.92    9689.8015    10332.763    9292.1563    583.57841   -841.17631    381.84408 
  442000    294.58579   -8950.0055   -7826.9101   -8950.0055            0    10250.849    24.988186     24.97391    23.019262  0.068464117  -0.03680115 -0.070992763    14365.233    11015.149    9617.1144    10120.285    56.240431    174.78519   -165.45571 
  442500    298.67944   -8868.5513   -7729.8491   -8868.5513            0    9921.3479    24.993762    25.013763    23.076923 -0.073294935  -0.21733551  -0.01357228    14427.416    10604.536    9610.3678    9549.1403    -347.9216   -809.97749   -438.96054 
  443000    294.55898   -8919.9053   -7796.9121   -8919.9053            0    8348.3141    24.994322    24.999249    23.148978  -0.12862913 -0.024248628  -0.16637636    14464.391     8283.465    9041.3668    7720.1104    92.339541    -244.9246    638.86872 
  443500     296.1367    -8899.312   -7770.3039    -8899.312            0      9993.14    24.974064    24.919826    23.142596   0.10340237  -0.17945111    0.3085716    14402.779     10293.69    9399.6222    10286.108    468.72883    303.49419   -1497.7911 
  444000    298.52672   -8928.2465   -7790.1265   -8928.2465            0    10803.882    25.063289    24.866612    22.979288  -0.30803354  0.066086149  -0.34553862     14321.59    9577.4706    11367.082    11467.095     862.0541    548.42586   -97.574462 
  444500    298.43962   -8993.9802   -7856.1922   -8993.9802            0    9883.7173    25.109592    24.927759    22.904365    0.1186124  -0.16110941   0.19552184    14336.434    8239.6192    10775.535    10635.998   -6.8456251    450.88595    127.21893 
  445000    297.42069    -8962.538   -7828.6347    -8962.538            0    9660.2214    25.117613    24.851395    23.010148  -0.34688061 -0.073875192  -0.50573198    14363.112    8792.3419    11085.245    9103.0772    986.48204   -1530.3606     852.1927 
  445500    300.99733   -8930.0152   -7782.4761   -8930.0152            0    8994.8214    25.056308    24.894964    23.096939  0.047655919  -0.08078188   0.19697497    14407.313    8144.8724    10837.403    8002.1889    -292.1567    370.68907    99.940905 
  446000    303.34276    -8920.857   -7764.3761    -8920.857            0    9027.1095    25.037161    24.928853    23.092299  -0.29513821  -0.17781391  -0.15441673    14413.005    8818.3287    9499.2049     8763.795    1009.1476   -1343.3696   -135.41658 
  446500    304.57276   -8961.4012   -7800.2309   -8961.4012            0    9127.3446    24.983849    24.957952    23.109667    0.1021796 -0.026634294   0.16209999    14409.934    9488.3064    8981.6782    8912.0491    -1194.266   -493.06828   -324.90347 
  447000    309.87737   -8920.0233   -7738.6295   -8920.0233            0    9139.2129    25.020898    25.014101    23.048482    -0.155613  -0.21987015 -0.031657627    14425.475    9197.9208    9345.3564    8874.3616    427.00461      -667.24    -96.73863 
  447500    298.48353    -8909.613   -7771.6576    -8909.613            0     9790.405    25.044746    25.086041    22.877649   0.24554776  0.097205978 -0.068238532    14373.421    10056.251    9227.4735    10087.491   -1054.9957    -45.34717    58.467635 
  448000    297.06808   -8919.8678   -7787.3088   -8919.8678            0    10354.179    24.975596    25.021528    22.982692  -0.17138832  -0.33312737 0.0028105823    14362.518    10726.683    10304.728    10031.127    798.51862   -290.69707    -240.7316 
  448500    291.58948   -8953.9383   -7842.2662   -8953.9383            0    10977.413    24.860006     24.91422    23.049024   0.27286374   0.26631684  0.051533545     14275.82    11807.358    10856.224    10268.657   -949.25215   -483.65298   -741.08546 
  449000    304.03192   -8958.6762   -7799.5679   -8958.6762            0    11883.248    24.879832    24.888474    23.062003  -0.21905597  -0.31438927  -0.15360908    14280.478     11940.29    13082.479    10626.974    918.85849   -396.26663    1413.1722 
  449500    308.00664   -8927.4815   -7753.2197   -8927.4815            0    10856.586    24.966567    24.944329    23.020024 -0.074381284  0.032976271  0.069815707    14336.279    11268.832    10321.192    10979.733   -807.66992   -185.71154   -1545.3327 
  450000     304.3466   -8935.3692   -7775.0611   -8935.3692            0    12129.181    25.018861    25.038467    22.767455   0.25116831  -0.18188576  -0.31600836    14262.306    12282.666    10803.681    13301.197   -938.49712     1735.439    1602.6466 
  450500    308.89371   -8970.6891   -7793.0454   -8970.6891            0    9647.8871    24.899025    25.093124    22.985863  -0.10288536 -0.064984966  0.083746149    14361.437    11104.013    7957.5896    9882.0585   -734.05213   -1300.1951    2067.6433 
  451000    294.26734   -8905.8879   -7784.0066   -8905.8879            0    9111.2438    24.931315    25.049852    23.085991  -0.15538299  -0.10060466 -0.093023814    14417.796    8646.6022    9316.9351     9370.194   -635.25795    38.400227    894.21088 
  451500    304.14633   -8932.5239   -7772.9794   -8932.5239            0    9298.8752    24.896778    24.998557     23.16437   0.24271521  -0.12485623  0.099157999    14417.122    10588.213     8152.372     9156.041   -543.73576    47.383079    757.97188 
  452000    303.72701   -8933.7172   -7775.7713   -8933.7172            0    9570.5404    25.048024    24.987594    22.968562  -0.28666463 -0.058493276  -0.15654816     14375.79    8620.9026    9204.5678    10886.151    862.15259   -424.86162    -453.7613 
  452500    298.32048   -8910.2741   -7772.9404   -8910.2741            0    10432.151     25.15678    24.974626    22.867019   0.27733947  -0.11374178  0.093982544    14366.918    8791.5936    10431.296    12073.564   -1393.9787      833.313    433.42326 
  453000     295.6362   -8967.8683   -7840.7683   -8967.8683            0     8845.653    25.079393    24.851389    23.070112  -0.37673968 -0.042825558 -0.042822661    14378.626    8921.3233    9738.1893    7877.4463   -4.3835338    333.79642   -53.179695 
  453500    304.15801   -8916.4808   -7756.8917   -8916.4808            0     9851.168    25.041669    24.837932    23.153259   0.17635426 -0.079247037 -0.077175275     14400.94    9539.6761    11039.361    8974.4675    188.72786   -733.08009   -169.49398 
  454000    303.25763   -8855.9823   -7699.8259   -8855.9823            0    12005.843    25.093383    24.850703    22.973385    -0.621511  -0.27609141   0.31313053    14325.932    12676.818    12042.477    11298.233   -459.68059    26.756296    -915.6096 
  454500     305.0102   -8942.4435   -7779.6055   -8942.4435            0      9722.42    25.031469    25.023518    22.916616  0.045370302  -0.01550246  -0.13379236    14354.405    9067.7829    10603.781    9495.6962   -889.88904    441.29784    109.07007 
  455000    291.52516   -8924.3252   -7812.8983   -8924.3252            0    11257.519     24.89437    24.966753    23.038913  -0.21626221  -0.21418136    0.1770214    14319.412    11302.734     11339.49    11130.332    674.56787    364.28799   -479.62446 
  455500    300.35719   -9026.3587   -7881.2601   -9026.3587            0    9258.0483    24.837154    24.946064    23.151849   0.01066582  0.033277607  -0.19775757    14344.636     9435.192    8958.4059    9380.5469   -331.06254   -576.22636     1337.076 
  456000     296.8891   -8932.2278   -7800.3511   -8932.2278            0      8514.17    25.063713    25.009093    23.039963   -0.2674669  -0.20547757    0.1149277    14441.926    7109.3362     9563.938    8869.2358    499.89009    653.14121   -355.25422 
  456500    309.64078   -8950.4143   -7769.9224   -8950.4143            0    9382.4236    25.079134    25.046414    22.882593  0.040076494 -0.0086609354  -0.16822398    14373.527    9166.3256    8601.4076    10379.537   -607.64758   -1313.3692   -331.54768 
  457000    291.75516    -8933.059   -7820.7553    -8933.059            0    10925.999    24.888369     24.98728    23.011178  -0.44333406    -0.290445   0.16135383    14310.482    12653.073    9793.5962    10331.326    472.63509      442.209   -1645.9472 
  457500    291.32515   -8902.2346   -7791.5703   -8902.2346            0    11101.063    24.886371    24.959963    23.067432 -0.093285555   0.05425539  -0.15158563    14328.633    12787.162    9832.0189    10684.007   -1079.8744   -733.75894    231.13495 
  458000    299.38937    -9004.307   -7862.8982    -9004.307            0     9665.189    24.960954    24.876796    23.084731  -0.10701628  -0.15499505  0.060966953    14334.431     10729.89    9289.6605     8976.017    277.71508    151.55376   -202.56605 
  458500    301.63286   -8935.6601   -7785.6981   -8935.6601            0    11173.625    24.972227    25.088205    22.842487  0.016468177  0.038645331  -0.42025567    14311.009    10865.627    11354.027     11301.22    14.460501   -187.44533    2701.6629 
  459000    298.21868   -8925.8137    -7788.868   -8925.8137            0    11039.339    24.915948    25.063106    22.952418 -0.037970007  -0.15909326   0.20786363     14333.12    11131.195    9685.5887    12301.235   -148.73694      790.349   -919.66799 
  459500    285.82119   -8967.4363   -7877.7556   -8967.4363            0    11610.012    24.805285    25.022746    22.994504  -0.16179146  0.058056933  -0.35419265    14272.604    12902.219    10893.672    11034.146    147.65731    71.118462    908.15923 
  460000    313.83389   -8896.9985   -7700.5205   -8896.9985            0    9843.5339    24.882191     25.01675    23.184069  0.064349586   -0.1846793   0.23351523    14431.424    10243.811    10031.538    9255.2533    1134.2842    288.77465    164.45505 
  460500    303.62985    -8924.382   -7766.8066    -8924.382            0    9406.9819    24.981445    25.033139    22.987231  -0.20589456  0.039711109  -0.34280635    14375.387    9624.1938    8187.7055    10409.046    219.77717   -619.61717    1622.8564 
  461000    305.04054   -8955.5697    -7792.616   -8955.5697            0    10012.752    24.998496    25.107643    22.869667   0.11968082   -0.3826651   0.27824879    14354.222    8775.9034    10661.732    10600.619    386.38138    861.08959   -1362.1621 
  461500    292.37401   -8936.3776   -7821.7146   -8936.3776            0    9763.1144    24.970403    24.967265    23.030099  -0.16157913 -0.0029824422  -0.26089055    14357.946    10643.563    10317.792    8327.9882    -116.5789    676.17052    579.68355 
  462000    312.31393   -8927.5638   -7736.8807   -8927.5638            0    9939.1265    24.969044    24.935009    23.111387  0.024632066 -0.068849664   0.25988147    14389.226    8996.8053    11145.561    9675.0126   -1247.2859    569.82812    -1975.662 
  462500    304.11306   -8915.2885   -7755.8708   -8915.2885            0    9946.6924    24.987178    24.935267    23.046464  -0.24780095  -0.13881976  -0.42340786    14359.375    9913.5752    10794.783    9131.7189    1082.0617    364.84252    1657.5624 
  463000    297.84654   -8941.5816   -7806.0548   -8941.5816            0    9286.0095    25.083214    24.955796    22.975835  0.079193945  -0.03192671   0.12114716    14382.219    8562.8434    8962.6153     10332.57    561.71914    192.02702    -883.1473 
  463500     298.3939   -8879.2361   -7741.6225   -8879.2361            0    9885.9936    25.097174    24.924186    23.019681  -0.15379448  -0.18044455  -0.21554696    14399.424    8815.3848    11554.182    9288.4139    289.05436   -1265.7902    521.01406 
  464000    290.92124   -8894.7822   -7785.6578   -8894.7822            0    8935.8576    25.088482    24.994596    23.011157   0.10812005 -0.052312257   0.13751394    14429.755    9211.7332    8934.8801    8660.9596    105.90124   -367.68896    -446.9202 
  464500    284.27257   -8963.5405   -7879.7638   -8963.5405            0    9960.6208    25.047048    24.846262    23.050545  -0.32453189  -0.10097576  -0.18858603    14344.942    9737.7182    11210.966    8933.1787    755.90399   -304.18815     1481.447 
  465000    293.05949   -8934.5676   -7817.2911   -8934.5676            0    9929.1316    25.069831    24.840414    23.071364   0.17203783  -0.11116557  0.089193987    14367.576    9764.2104    10811.112    9212.0729   -64.766324    626.36162   -448.93044 
  465500    291.82587   -8913.8662   -7801.2929   -8913.8662            0    10258.903    25.019601    24.925692    23.068324  -0.32024337   0.12574076    -0.126998    14386.119    11168.008     10317.38    9291.3221   -156.05166   -1237.3992   -211.10085 
  466000    312.11078    -8967.489   -7777.5803    -8967.489            0    9482.9991    25.022822    24.991683    22.963876   0.19791159  -0.23521243  0.078957667    14360.746    9284.7101    9863.2395    9301.0478   -1471.7849    -208.5022   -745.57287 
  466500    294.41354   -8928.6285   -7806.1898   -8928.6285            0    9816.5168    24.974029    25.024753    23.009719  -0.31732725  0.083532234 -0.076832453    14380.359    9090.7605    9925.3862    10433.404    1286.9455   -1099.1872   -525.28875 
  467000    304.73169   -8852.2675   -7690.4914   -8852.2675            0    10917.231    24.866642    25.066941    23.012683   0.24110461  -0.25799492 -0.0093430835    14344.511     10960.32    10458.625    11332.749   -1781.2945    818.65877   -322.99638 
  467500    300.60408   -8955.6039   -7809.5641   -8955.6039            0    10145.961     24.87723    25.007819    22.986836  -0.20104771  0.029135688 -0.040918805    14300.692    11321.702    10381.641    8734.5408    540.63766   -766.74183    179.64123 
  468000    307.33784   -8999.6052   -7827.8932   -8999.6052            0    9299.5291    24.893319    25.020485    23.082391  0.067663154  -0.33486052 -0.035215809    14376.704    9538.6667    8987.3912    9372.5295    -467.7316    359.66553    1577.7631 
  468500    307.21112   -8970.2092   -7798.9803   -8970.2092            0    10039.628    24.942915    24.932743    23.096696  -0.39115125   0.30775928  0.048170885    14363.726    9330.0585    10565.331    10223.495    910.41319   -1313.6593   -285.85849 
  469000    304.20506   -8900.7946   -7741.0262   -8900.7946            0    10498.854    25.053946    24.936624    23.014722   0.14908262  -0.28810998  -0.10311682    14378.697    10408.194    10827.365    10261.002    -1490.416    586.42717    -407.2651 
  469500    302.79884    -8944.222   -7789.8147    -8944.222            0    10900.064    25.063945    24.904615    22.932531  -0.39173403    0.1528616  0.016955278    14314.668    10686.623    11297.948    10715.621     833.5805   -58.835036   -524.97383 
  470000    303.66575   -8896.5234    -7738.811   -8896.5234            0    10151.566    25.006926    24.967261    22.990794   0.61283152  -0.53866368  -0.22497529    14354.405    10564.026    10004.705     9885.969   -822.88503    1266.7418    2329.8571 
  470500    304.49817   -8970.3774   -7809.4915   -8970.3774            0    9966.1412    24.960354    24.971377    22.984671  -0.31359276  0.052344166  0.045624549    14326.217    10850.485    8984.4505    10063.489   -339.33253   -1859.5643    1336.6008 
  471000    311.94349   -8897.4299   -7708.1591   -8897.4299            0    9069.2026    24.968821    25.019367    23.127447   0.21391852  -0.36683947  -0.25084097    14447.811    9237.6173     9518.985    8451.0056    660.25942    420.90602    302.90054 
  471500    299.05843   -8898.4832   -7758.3361   -8898.4832            0    8811.1006    25.054661    24.942998    23.135123  -0.10546618   0.18659992   0.22999818    14458.025     8925.494    9544.0856    7963.7221   -281.86343   -1072.8055   -1420.9463 
  472000    306.66345   -8874.7319    -7705.591   -8874.7319            0    8655.2591    25.090325    25.035089    23.048684 -0.087725587  -0.21856936  -0.21239202    14477.766    8218.2428    8733.5522    9013.9824   -237.17602    217.77337    1225.4595 
  472500    307.22948   -8902.0224   -7730.7235   -8902.0224            0    10899.902    24.981589    24.969949    22.930725  -0.16267122  0.051856999   0.12902545    14303.935    10645.969    11192.148    10861.588   -870.50103   -279.93999    686.35795 
  473000    306.02672   -8894.7799   -7728.0665   -8894.7799            0    11163.196    24.977764    24.965732     22.97676 -0.0095581578  -0.22642844  -0.18841156    14328.035    9874.6965    11077.827    12537.066    666.09998   -399.11343   -604.41849 
  473500    304.76878   -8919.9626    -7758.045   -8919.9626            0    10594.632    24.924454    25.023101     22.97462 -0.090409276 -0.047533673   0.17849007    14328.975    9775.9225     11616.82    10391.155    38.474805   -869.92585   -416.47396 
  474000    288.02736    -8947.074   -7848.9824    -8947.074            0    10110.797    24.949855    24.971708    23.036686 -0.082064651 -0.065191146  -0.22435843    14352.788    10295.009    9287.7273    10749.656    535.33493    144.26877    410.57828 
  474500    290.83752   -8918.1191   -7809.3138   -8918.1191            0    8776.9263    24.962771     25.11591    23.060207  0.039722762  -0.17468575   0.21068191     14457.89    8419.2028    9108.4358    8803.1403   -880.44391    275.34481   -406.44777 
  475000     298.8723   -8911.4365    -7771.999   -8911.4365            0    8324.6801     25.02649    25.139197    23.027995 -0.034031435   0.07088983  -0.26136341    14487.967    8382.5225    7613.7579    8977.7598   -666.67271    443.90062   -81.801747 
  475500    287.98837   -8968.9738   -7871.0308   -8968.9738            0    9770.5729    24.976392     24.96573    22.985055 -0.035582155  -0.13537777  0.042312518     14332.42    10907.511    8606.8145    9797.3933   -354.91472   -186.63639   -688.85718 
  476000     303.9339   -8914.5391   -7755.8044   -8914.5391            0    7806.5164    25.077527    25.150715    22.957822  -0.24343423  0.047491616  -0.12588183    14479.905    8652.6307    6147.8646     8619.054    389.94613    81.012196    744.27839 
  476500    287.19923   -8957.6634    -7862.729   -8957.6634            0    9482.8618    25.029639    25.036042      22.9287   0.27227583  -0.17480955  0.029516041    14368.111    8691.4448    9206.3081    10550.832   -47.985068    864.37781    763.41291 
  477000    311.51497   -8927.3451    -7739.708   -8927.3451            0    10077.597     24.97816    24.914938     23.13006  -0.24543417 -0.013721079 -0.035675176    14394.514    9748.4278    10708.151    9776.2118    1289.3735   -712.68779   -473.52325 
  477500    308.60717    -8933.466   -7756.9147    -8933.466            0    9292.9727     24.96514    24.942561    23.088954  0.053486191  -0.18040858  0.030600464    14377.365    10489.843    9490.8395    7898.2358    177.10708   -100.16397   -1192.6534 
  478000     307.0203   -8920.1265   -7749.6252   -8920.1265            0    10323.505    25.001074    25.093782    22.866596  -0.36558941   0.15712536  -0.22874461    14345.851    10138.262    9111.4269    11720.826    876.02668    1031.7787    164.21305 
  478500    309.77757   -8961.8514    -7780.838   -8961.8514            0    10474.491    24.993413    25.003527    22.966295 -0.026561183  -0.15516098  0.064124478    14352.177    9708.8852    10652.065    11062.524    1196.8222   -767.47536    317.90171 
  479000    294.03546   -8915.4277   -7794.4305   -8915.4277            0    10426.079    24.933658    24.939724    23.084933  -0.11561072  0.050176278  -0.26494788    14355.102    9902.8237    11344.774    10030.638    1060.7473    30.176036    709.93906 
  479500    294.71203    -9032.967   -7909.3904    -9032.967            0    10502.459    24.844938    24.919779    23.076894 -0.094458967  -0.24068144   0.20373792    14287.606    10395.653    12115.696    8996.0278   -6.8236823    645.87863   -1121.0231 
  480000    309.96189   -8966.1601    -7784.444   -8966.1601            0    9766.9631    25.035623    25.011961    22.949647  -0.22652351   0.12672795  -0.27311045     14370.84    8668.1819    10597.468    10035.239    330.43041   -1680.0001    987.05928 
  480500    312.03047   -8904.3096   -7714.7071   -8904.3096            0    9771.1547    25.032004    25.061552    22.934507 -0.084233079  -0.42030838   0.34994328    14387.754    9620.6816    9179.7793    10513.003    34.247044    1556.9182   -1282.7546 
  481000    290.69735   -8971.3462   -7863.0754   -8971.3462            0     10146.42    24.982752    24.955099    23.000889  0.032801708   0.18250281  -0.36854367    14339.836    11029.111    10065.938    9344.2109    236.11119    -756.9707   -1202.8624 
  481500    288.44535   -8938.7572   -7839.0719   -8938.7572            0    10672.378    24.893711    24.936111    23.091652  -0.15825296   -0.3573161    0.1919609    14334.197    12060.104    9863.1125    10093.919    208.94387   -143.38904   -996.39458 
  482000     282.8649   -8955.5722   -7877.1622   -8955.5722            0    10424.055    24.960304    24.949442    23.017597   0.15203977   0.31157881  -0.22571104    14334.109    11076.491    9236.5779    10959.096     639.8896   -1444.7327    729.82104 
  482500    309.65983   -8894.9889   -7714.4244   -8894.9889            0    9299.0292    25.096758    24.991239    22.999076 -0.073790324    -0.484683  0.052328081    14424.999    9052.8724    9382.0118    9462.2034    110.69247    1482.1115    158.24316 
  483000    289.52896   -8976.2038   -7872.3873   -8976.2038            0    9112.6441    25.137372    24.958003    22.931879 -0.066914378   0.28038816  -0.11913105    14386.971    7375.7106    9802.7899    10159.432   -228.14996   -2747.7429   -140.43096 
  483500     303.0245   -8921.0996    -7765.832   -8921.0996            0    9771.8004    25.058362    24.857727    23.090831  -0.12752327  -0.53043795  0.070931819    14383.138    9180.5299     11441.22    8693.6514    248.29064    951.77676   -575.61099 
  484000    298.30584   -8931.3754   -7794.0975   -8931.3754            0    10329.356    24.993285    24.862193    23.154527 -0.0002270098   0.12908138 -0.067092052    14387.943    10091.522    11143.297    9753.2501   -359.30083    -199.3718   -9.9005131 
  484500    318.79488   -8957.3346   -7741.9432   -8957.3346            0    11281.715    24.963415    24.835873    23.053558  -0.18300028  -0.44359698  0.054059934    14292.934    11971.184    11681.098    10192.862    604.16792    1781.4892    1311.1824 
  485000    313.36001   -8966.8666   -7772.1954   -8966.8666            0    11050.026    25.025589    24.971878    22.845682 -0.013072781  0.031035627   -0.0578247    14277.088    11345.418    10204.376    11600.286   -561.99642    273.50419   -242.26413 
  485500    310.71191   -8885.8627   -7701.2872   -8885.8627            0    11332.926    25.009248    24.974535    22.921035   -0.1751817  -0.14468258 -0.050656549    14316.349     10450.05    12163.996    11384.731    416.61521   -642.47428   -349.86925 
  486000    293.49354    -8930.076   -7811.1448    -8930.076            0    10359.066     24.91621    24.914578     23.13294  0.069112018  0.050754155  0.042706283    14360.394    10584.765     11355.13    9137.3035   -189.27068    1314.6666    103.93787 
  486500    296.79258   -8958.3726   -7826.8639   -8958.3726            0     9855.021    24.917272    24.966378    23.059773  -0.16720776  -0.16106972 -0.064918267    14345.347    9936.5019    9816.6128    9811.9485    1000.9833   -50.534613    573.96742 
  487000    297.61858   -8916.1419   -7781.4842   -8916.1419            0    9341.7278    24.979491    25.295244    22.811865  0.024999835  0.054245095  0.087574618    14413.958    9728.6543    6598.2897    11698.239   -1156.9179   -91.339992   -846.16788 
  487500    290.45217   -8918.8959   -7811.5597   -8918.8959            0    9305.3223    25.007266      25.1022     22.93627 -0.083224234  -0.23733896  -0.12774969    14397.955    8907.4083    8962.2226    10046.336    575.76783    472.66714    264.57786 
  488000     298.6121   -8901.0276   -7762.5821   -8901.0276            0    10209.833    24.945123    25.005231     23.05306 -0.0027895232  0.040152746  -0.07275299    14379.544    10445.799    10375.855     9807.844    871.61048   -827.02778    140.55068 
  488500    309.46738   -8900.0333   -7720.2025   -8900.0333            0    10635.554    24.865866    24.908331    23.175632  -0.15103992  -0.24054729  0.023781811    14354.227    12181.312    10615.313     9110.039    375.66792   -628.39809   -364.73449 
  489000    288.83158    -8945.852   -7844.6943    -8945.852            0    10296.235    25.024764    24.970951    22.921937 -0.008770649  0.067447309  0.011660998    14323.739     9708.846    10282.629    10897.229    709.21886    393.45929   -676.13447 
  489500    302.39544   -8911.6519   -7758.7826   -8911.6519            0    10003.585    25.144805    25.011452    22.884896  -0.01844868    -0.241011 -0.024058145    14392.496    9058.4255    10066.537    10885.793   -280.00728    -113.2986    205.63946 
  490000     309.8395    -8929.282   -7748.0325    -8929.282            0    10269.414    25.097281    24.807427     23.07241 0.0090294051   0.23129596 -0.033915265    14364.858    10075.044    9471.3024    11261.895   -670.40195   -2885.2871   -535.48569 
  490500    299.81907   -8912.2404   -7769.1934   -8912.2404            0    10182.068    24.979019    24.791424    23.174587  0.052011549   -0.2053762 -0.050784256    14351.221    10462.805    10709.751    9373.6463    200.27989    449.90009   -277.11161 
  491000    311.49769   -8957.2977   -7769.7264   -8957.2977            0    10084.473    25.051817    24.805692     23.10209   -0.3132027  0.047747268 -0.027275197    14356.277    10013.759    9960.2209     10279.44   -153.91048    597.05166    2720.3659 
  491500    296.80568   -8926.6621   -7795.1035   -8926.6621            0    11471.873    25.176168    24.923822    22.813448   0.26977533  -0.23881012 0.0084058312    14315.127    9861.3805    12356.348     12197.89   -550.44339   -176.65469   -341.21356 
  492000    305.77695   -8882.4015   -7716.6403   -8882.4015            0    11081.567    25.093291    25.014928    22.911947  -0.16217929  0.076147144 -0.081274591    14381.986    10275.116     10792.32    12177.263    444.45241   -979.90873    1085.8875 
  492500    291.34347    -8930.009   -7819.2748    -8930.009            0    10487.822    24.885098    24.949183    23.095629   0.14468276  -0.33184617   0.13290579    14339.218    9145.6624    12753.508    9564.2953   -783.90434    746.55616   -622.95715 
  493000    295.53841   -8985.1651   -7858.4379   -8985.1651            0    10030.365    24.821739    24.998415    23.078306  -0.12456239   0.21394895   -0.3907604    14320.184    10423.732     9836.097    9831.2651    305.56927   -293.64114    835.20289 
  493500    301.98615   -8965.7193   -7814.4104   -8965.7193            0    9373.8144    24.926943    25.075812    23.037056  -0.00683065  -0.18387664  0.071336754    14399.619    9721.3377    8457.6598    9942.4458   -63.420183    1461.9516    5.0501773 
  494000    304.33493   -8921.6103   -7761.3468   -8921.6103            0     9310.853    24.938705    25.018873    23.125323  -0.15124618   0.17932769   -0.1159828    14428.775    10340.171    8506.5126    9085.8757   -455.01456    22.286469   -181.24523 
  494500    296.51308   -8883.0636   -7752.6205   -8883.0636            0     11258.38    24.903619    24.965441     23.03084   -0.2036146  -0.28853477  0.068391985     14318.96    11786.669    12540.975    9447.4967   -127.94494    1292.8262   -749.77771 
  495000     301.7283   -8944.3189    -7793.993   -8944.3189            0    11277.672    24.971228    24.892673     22.95463  0.093787647 -0.00015874586 -0.069948314    14268.612    9750.3986    12361.856    11720.763   -1023.9538     -267.653    125.62491 
  495500    282.24242   -8909.8565   -7833.8197   -8909.8565            0    10563.294    25.032177     24.96488     22.92856   -0.3045699  -0.19242028  0.024917724    14328.637    11519.109    10319.067    9851.7066    434.50862     1545.637    138.61632 
  496000    308.21323   -8940.3645   -7765.3151   -8940.3645            0    9071.3051    25.014523    24.910975    23.145202   0.16500522 -0.030346737 -0.026684666    14422.612     8940.482    9824.0163    8449.4171   -499.60755   -396.52727    463.33299 
  496500    295.33235   -8876.2986    -7750.357   -8876.2986            0    10169.767    24.996461    24.905671    23.166054 -0.008153858 -0.087454842  0.044600284    14422.112    10493.799    11169.021    8846.4825    236.45213   -925.42652      484.757 
  497000     295.2047   -8924.9013   -7799.4463   -8924.9013            0    10586.745    25.130646    24.881829    22.969115 -0.079338213  -0.22233121  -0.18605955    14362.506    9460.4457    10967.806    11331.984   -431.46227    498.69393    611.60254 
  497500     298.1889   -8928.5799   -7791.7478   -8928.5799            0    11524.228    25.074888    24.913057    22.858897 0.0029869404   0.01198398  0.056957842    14279.773    10286.445    12139.677    12146.561    703.58731    774.58095    487.86743 
  498000    296.42901   -8953.2834   -7823.1608   -8953.2834            0    11726.806     24.97907    24.862407    22.954373  -0.13916936  -0.20293487 -0.054957059    14255.579     10729.23    12523.942    11927.245    647.41706    433.79082   -356.50159 
  498500    297.72705   -8906.4112   -7771.3399   -8906.4112            0    10095.624    24.960018      24.9856    23.069493 -0.031558324 -0.068041426  -0.07329749    14387.082    9390.1923    11370.243    9526.4364    97.079458    116.31212    227.16428 
  499000    288.06876    -8924.803   -7826.5535    -8924.803            0    9408.7596    25.020718    24.933085    23.054783  -0.14321315 -0.084784086 -0.0047987811    14382.581    9554.2936    9540.9067    9131.0784    389.47482    230.08067   -615.21719 
  499500    293.39159   -8902.6843   -7784.1418   -8902.6843            0    9824.2073    25.340883     24.83225    22.890274    -0.121824   0.15487764  -0.31820254    14404.189    7174.7535    11263.102    11034.766    376.22603   -1406.8002    144.53589 
  500000    304.75669   -8971.8436   -7809.9721   -8971.8436            0    10036.391    25.146471    24.909978    22.917769 -0.055976104  -0.26617857  0.037889799    14355.646    8230.8028    11264.168    10614.202    289.39163    824.69982   -716.56554 
Loop time of 2325.73 on 8 procs for 500000 steps with 1920 atoms

Performance: 37.150 ns/day, 0.646 hours/ns, 214.987 timesteps/s
100.0% CPU use with 8 MPI tasks x 1 OpenMP threads

MPI task timing breakdown:
Section |  min time  |  avg time  |  max time  |%varavg| %total
---------------------------------------------------------------
Pair    | 1324.1     | 1335.8     | 1352.2     |  27.5 | 57.44
Bond    | 0.79289    | 0.84382    | 0.8863     |   3.0 |  0.04
Kspace  | 484.37     | 501.5      | 512.33     |  45.8 | 21.56
Neigh   | 127.77     | 127.86     | 127.98     |   0.8 |  5.50
Comm    | 46.331     | 53.588     | 75.837     | 166.4 |  2.30
Output  | 2.0746     | 2.0752     | 2.0779     |   0.1 |  0.09
Modify  | 236.22     | 291.86     | 310.59     | 173.9 | 12.55
Other   |            | 12.2       |            |       |  0.52

Nlocal:    240 ave 243 max 237 min
Histogram: 1 2 0 0 0 1 2 0 1 1
Nghost:    4916.38 ave 4944 max 4884 min
Histogram: 2 0 0 0 0 3 0 1 0 2
Neighs:    84651.8 ave 85502 max 83295 min
Histogram: 1 0 1 1 0 0 0 2 1 2

Total # of neighbors = 677214
Ave neighs/atom = 352.716
Ave special neighs/atom = 2
Neighbor list builds = 34969
Dangerous builds = 12

unfix		3
unfix		2
unfix		1

write_data	data.final.${pid}
write_data	data.final.0
PPPM initialization ...
  extracting TIP4P info from pair style
  using 12-bit tables for long-range coulomb (src/kspace.cpp:332)
  G vector (1/distance) = 0.376072
  grid = 30 32 30
  stencil order = 5
  estimated absolute RMS force accuracy = 0.00298782
  estimated relative force accuracy = 8.99773e-06
  using double precision FFTW3
  3d grid and FFT values/proc = 12144 3840
Last active /omp style is kspace_style pppm/tip4p/omp

write_restart   restart.lmp.${pid}
write_restart   restart.lmp.0
PPPM initialization ...
  extracting TIP4P info from pair style
  using 12-bit tables for long-range coulomb (src/kspace.cpp:332)
  G vector (1/distance) = 0.376072
  grid = 30 32 30
  stencil order = 5
  estimated absolute RMS force accuracy = 0.00298782
  estimated relative force accuracy = 8.99773e-06
  using double precision FFTW3
  3d grid and FFT values/proc = 12144 3840
Last active /omp style is kspace_style pppm/tip4p/omp
Total wall time: 0:38:45
