LAMMPS (15 Apr 2020)
Processor partition = 0
  using 1 OpenMP thread(s) per MPI task
package omp 0
using multi-threaded neighbor list subroutines
echo both

include		in.partitions
variable        pid world 0
include		in.temp
variable	temperature equal 300.0
variable	tempDamp equal 100.0
include		in.pressure
variable        pressure equal 10000.
variable        pressureDamp equal 1000.0 # This is 1 ps
include		in.seed
variable        seed world 745823

units		real
atom_style	full
include		in.box
read_data       water.data
  orthogonal box = (0 1.09153 0) to (18.2076 22.5376 22.2132)
  2 by 2 by 2 MPI processor grid
  reading atoms ...
  864 atoms
  reading velocities ...
  864 velocities
  scanning bonds ...
  2 = max bonds/atom
  scanning angles ...
  1 = max angles/atom
  reading bonds ...
  576 bonds
  reading angles ...
  288 angles
  2 = max # of 1-2 neighbors
  1 = max # of 1-3 neighbors
  1 = max # of 1-4 neighbors
  2 = max # of special neighbors
  special bonds CPU = 0.00104337 secs
  read_data CPU = 0.0251509 secs
include 	in.setup
variable	out_freq equal 500
variable	out_freq2 equal 500

timestep	2.0

neigh_modify    delay 7 every 1

include		in.tip4p
# This is TIP4P/Ice

# create groups ###
group ox type 2
288 atoms in group ox
group hy type 1
576 atoms in group hy

# set charges - beside manually ###
set group ox charge -1.1794
  288 settings made for charge
set group hy charge 0.5897
  576 settings made for charge

# ### TIP3P Potential Parameters ###
pair_style lj/cut/tip4p/long 2 1 1 1 0.1577 8.5
pair_coeff 1 1*2 0.000 0.000
pair_coeff 2 2 0.21084 3.1668
bond_style  harmonic
bond_coeff  1 450 0.9572
angle_style harmonic
angle_coeff 1 55 104.52
kspace_style pppm/tip4p 1.0e-5
pair_modify tail yes

thermo          ${out_freq}
thermo          500
thermo_style 	custom step temp pe etotal epair emol press lx ly lz vol pxx pyy pzz pxy pxz pyz

restart 	${out_freq} restart.lmp.${pid} restart2.lmp.${pid}
restart 	500 restart.lmp.${pid} restart2.lmp.${pid}
restart 	500 restart.lmp.0 restart2.lmp.${pid}
restart 	500 restart.lmp.0 restart2.lmp.0


include         in.dump
dump            myDump all atom ${out_freq2} dump.water.${pid}
dump            myDump all atom 500 dump.water.${pid}
dump            myDump all atom 500 dump.water.0
dump            myDump2 all dcd ${out_freq2} dump.dcd
dump            myDump2 all dcd 500 dump.dcd
dump_modify     myDump append yes
dump_modify     myDump2 append yes


timer           timeout 00:55:00 every 1000
New timer settings: style=normal  mode=nosync  timeout=00:55:00

fix 		1 all shake 1e-6 200 0 b 1 a 1
  0 = # of size 2 clusters
  0 = # of size 3 clusters
  0 = # of size 4 clusters
  288 = # of frozen angles
  find clusters CPU = 0.000450809 secs
fix             2 all nph iso ${pressure} ${pressure} ${pressureDamp}
fix             2 all nph iso 10000 ${pressure} ${pressureDamp}
fix             2 all nph iso 10000 10000 ${pressureDamp}
fix             2 all nph iso 10000 10000 1000
fix             3 all temp/csvr ${temperature} ${temperature} ${tempDamp} ${seed}
fix             3 all temp/csvr 300 ${temperature} ${tempDamp} ${seed}
fix             3 all temp/csvr 300 300 ${tempDamp} ${seed}
fix             3 all temp/csvr 300 300 100 ${seed}
fix             3 all temp/csvr 300 300 100 745823
velocity 	all create ${temperature} ${seed} dist gaussian
velocity 	all create 300 ${seed} dist gaussian
velocity 	all create 300 745823 dist gaussian

run             500000
PPPM initialization ...
  extracting TIP4P info from pair style
  using 12-bit tables for long-range coulomb (src/kspace.cpp:332)
  G vector (1/distance) = 0.371448
  grid = 24 25 25
  stencil order = 5
  estimated absolute RMS force accuracy = 0.00331186
  estimated relative force accuracy = 9.97357e-06
  using double precision FFTW3
  3d grid and FFT values/proc = 8400 2400
Last active /omp style is kspace_style pppm/tip4p/omp
Neighbor list info ...
  update every 1 steps, delay 7 steps, check yes
  max neighbors/atom: 2000, page size: 100000
  master list distance cutoff = 10.8154
  ghost atom cutoff = 10.8154
  binsize = 5.4077, bins = 4 4 5
  1 neighbor lists, perpetual/occasional/extra = 1 0 0
  (1) pair lj/cut/tip4p/long/omp, perpetual
      attributes: half, newton on, omp
      pair build: half/bin/newton/omp
      stencil: half/bin/3d/newton
      bin: standard
Per MPI rank memory allocation (min/avg/max) = 9.859 | 9.872 | 9.914 Mbytes
Step Temp PotEng TotEng E_pair E_mol Press Lx Ly Lz Volume Pxx Pyy Pzz Pxy Pxz Pyz 
       0          300   -3852.2439   -3338.0542   -3852.2439            0    3467.3083    18.207572    21.446115    22.213196    8673.8464    3133.8643    3776.2156    3491.8451    2131.3549   -2192.9289   -1816.9988 
     500    316.41665   -3742.2438   -3199.9165   -3742.2438            0    10397.824    17.237633    20.303655    21.029872    7360.1806    10625.848    10339.814     10227.81   -155.00308    274.63084   -1372.9933 
    1000    313.25096   -3743.3135   -3206.4121   -3743.3135            0    10914.789    17.057682    20.091696    20.810332    7132.0703    11482.827    12096.263    9165.2769   -451.33957   -1332.8213    -1156.376 
    1500    308.62879   -3761.5459   -3232.5667   -3761.5459            0    9442.6603    16.980876    20.001229    20.716629    7036.1628    9711.8705    6835.5074    11780.603   -915.49634   -782.16843     -828.644 
    2000     297.4913   -3726.9833   -3217.0934   -3726.9833            0    9036.6756    17.011582    20.037397    20.754091    7074.4018    8013.7553    11069.021    8027.2509    1176.9379    28.291077   -2314.1474 
    2500    299.20615   -3728.1468   -3215.3177   -3728.1468            0    9126.0039    17.005648    20.030407    20.746851    7067.0006    9946.2186    8544.3704    8887.4226   -523.67777    560.13196   -804.07987 
    3000    286.64235   -3725.1102    -3233.815   -3725.1102            0    9423.5267    16.993292    20.015853    20.731776    7051.6074    7442.3097     11204.67    9623.6005   -722.98056   -468.22538   -1044.4769 
    3500    301.00657   -3757.4576   -3241.5426   -3757.4576            0    9172.5213    16.914591    19.923154    20.635762     6954.087    10135.746    8945.6167    8436.2014   -988.50724       3445.6    880.82544 
    4000    283.36065   -3758.1169   -3272.4464   -3758.1169            0    7984.7163    16.966545    19.984349    20.699145    7018.3628    8946.1437    9936.8915    5071.1138   -1633.2491     1299.466    -137.3327 
    4500    287.43483   -3750.9447   -3258.2912   -3750.9447            0    7874.9998    17.000518    20.024365    20.740592    7060.6072    6896.2384    9502.8202    7225.9407     995.4006   -447.01901   -161.60958 
    5000    296.60782   -3735.6534   -3227.2777   -3735.6534            0    8222.4706    16.999862    20.023592    20.739792    7059.7897    8402.5513    7756.4178    8508.4428    268.35159   -620.92062    534.75497 
    5500    293.85816   -3777.8193   -3274.1565   -3777.8193            0    9752.9618    16.894698    19.899723    20.611493    6929.5802    9503.7685    11627.383    8127.7342   -453.14117   -846.87886    1966.2564 
    6000     295.6159   -3724.1653   -3217.4897   -3724.1653            0    7772.6463    16.994104     20.01681    20.732767    7052.6187    7648.3743     8843.325    6826.2396    -865.1369    -660.4358    20.789563 
    6500    287.67409   -3703.3624   -3210.2989   -3703.3624            0    11844.362    16.852878    19.850465    20.560472    6878.2483    10876.815    10441.392    14214.878    279.73402    -473.1821   -829.23616 
    7000    302.60681   -3730.1134   -3211.4557   -3730.1134            0    9766.3484    17.037184    20.067552    20.785324    7106.3895    6978.7859    10790.692    11529.567   -159.08853   -46.763379   -223.00511 
    7500    274.06471    -3702.172   -3232.4345    -3702.172            0    8137.1881    16.990309     20.01234    20.728138    7047.8952    8466.0906    10038.623    5906.8512   -2188.7234    1647.1521    638.51399 
    8000    301.76163   -3736.5672   -3219.3581   -3736.5672            0    9889.5132    17.017832    20.044759    20.761716    7082.2021     9439.497    9946.9682    10282.074    709.88162    691.78894    1972.6385 
    8500    295.47949   -3720.4253   -3213.9836   -3720.4253            0    8615.5314    17.007688     20.03281     20.74934    7069.5445    8700.4736    9222.2952    7923.8253   -1804.6292    1590.7318    -3114.485 
    9000    304.33972   -3733.9374   -3212.3095   -3733.9374            0    8615.8697    16.992437    20.014847    20.730734    7050.5441    8100.2774    8580.4806     9166.851    891.39089    643.51232   -777.11354 
    9500    298.83722   -3697.0292   -3184.8324   -3697.0292            0    12756.437    16.900344    19.906373     20.61838    6936.5296    11894.097    13358.794     13016.42   -635.34903     953.1679    506.19527 
   10000    295.26769   -3701.8478   -3195.7691   -3701.8478            0    8392.6939    17.023788    20.051773    20.768981    7089.6399    11411.311    6715.2471    7051.5236   -1839.8009   -239.81425   -681.34203 
   10500    306.58345   -3668.7074   -3143.2339   -3668.7074            0    8187.3046    17.047417    20.079606    20.797809     7119.203    8675.2701    8232.5626    7654.0811       254.08   -182.42363   -82.128099 
   11000    310.98678   -3700.1991   -3167.1784   -3700.1991            0    10627.911    16.890732    19.895051    20.606654    6924.7009    11854.011    11128.073    8901.6486    590.54331   -2183.3337    1020.5554 
   11500    303.89318   -3748.7447   -3227.8822   -3748.7447            0    10288.729    16.883801    19.886887    20.598197    6916.1791    10356.384    9937.9193    10571.883    254.97222    1195.9449    287.42036 
   12000    312.49251   -3701.8242   -3166.2227   -3701.8242            0    7849.8393    17.004825    20.029437    20.745846    7065.9743    8019.4468    7224.2683    8305.8026      72.5617   -1197.2623    202.76448 
   12500    291.93463   -3699.0901   -3198.7242   -3699.0901            0    10813.071    16.936408    19.948851    20.662378    6981.0295     9955.803    13920.503    8562.9064    589.45451   -1392.2182    702.45169 
   13000    305.36938   -3691.6785   -3168.2858   -3691.6785            0     10806.07    16.997186     20.02044    20.736527    7056.4562    12360.022    8833.8886      11224.3   -488.36282   -150.35324    894.12152 
   13500    297.10548   -3728.6471   -3219.4185   -3728.6471            0     9462.557    16.996552    20.019693    20.735754    7055.6672    9701.5015    10082.888    8603.2817   -450.51524   -138.87198    727.94518 
   14000    300.77493   -3748.3895   -3232.8715   -3748.3895            0    9991.1096     16.95944    19.975981    20.690478    7009.5501    9754.6857    10326.455    9892.1885    -1081.172    279.41946    404.33731 
   14500    305.65583   -3742.7965   -3218.9129   -3742.7965            0    12074.262    16.891956    19.896493    20.608147    6926.2067    12776.729    12301.729    11144.327    414.37533   -512.19419    226.24624 
   15000    300.44472   -3714.8601   -3199.9081   -3714.8601            0     11358.54    16.990123    20.012121     20.72791    7047.6634    11611.998      9866.93    12596.691   -1142.2365    734.04977    584.57541 
   15500    302.44967   -3715.0731   -3196.6847   -3715.0731            0    10756.606    16.943806    19.957566    20.671404    6990.1825    11382.097    9671.9107     11215.81    -1428.071   -45.339486    561.87943 
   16000    306.57396   -3707.3563   -3181.8991   -3707.3563            0    12576.355    16.865177    19.864951    20.575477    6893.3178     12049.13    12417.204     13262.73    628.05296    269.80165   -9.8818122 
   16500     307.1754   -3675.1752   -3148.6871   -3675.1752            0    9723.4914    17.005631    20.030388    20.746831    7066.9802    10037.322    10980.732    8152.4199    411.44204    886.44845    1825.0546 
   17000    309.55767   -3724.4279   -3193.8567   -3724.4279            0    11942.576    16.923174    19.933263    20.646233     6964.678    10898.071    10544.238     14385.42   -407.30917   -2278.5534    258.08149 
   17500    296.86554   -3708.5111   -3199.6937   -3708.5111            0    9923.6992    17.011414    20.037199    20.753886    7074.1921    10152.003    9279.1979    10339.897    694.87297    1747.1951   -793.96526 
   18000    293.63989   -3733.1681   -3229.8794   -3733.1681            0    10497.052    16.903577     19.91018    20.622324    6940.5103    7646.1012    14354.513    9490.5427      -622.01    2098.6517   -915.44007 
   18500    292.77339   -3739.8622   -3238.0586   -3739.8622            0     11159.57    16.994239    20.016969    20.732932    7052.7872    10802.318    10302.545    12373.849    1106.0164    228.24691   -506.34041 
   19000    300.88591   -3707.4258   -3191.7176   -3707.4258            0    9430.5155    16.949149    19.963859    20.677922    6996.7971    10694.438    9295.7486    8301.3604    710.95816   -2053.5461    447.86654 
   19500    300.62975   -3700.6938   -3185.4247   -3700.6938            0    11825.962    16.973003    19.991956    20.707024    7026.3806    12308.606    10366.268    12803.012   -1599.0511     1275.356    1165.3558 
   20000    290.79951   -3742.4816   -3244.0612   -3742.4816            0     10815.51    16.915302    19.923991    20.636629    6954.9633    13409.611    8685.5172    10351.403    893.96931   -609.49469    250.31174 
   20500    310.50513   -3742.2452   -3210.0501   -3742.2452            0    8829.7429    16.935959    19.948322     20.66183    6980.4745     7942.473    9515.5135    9031.2423    1642.8008    456.45407   -176.36094 
   21000    301.01679   -3767.4155    -3251.483   -3767.4155            0    10719.004    16.952876    19.968249     20.68247    7001.4143    9608.5298    10648.162    11900.321    100.56254    1308.6346   -429.00177 
   21500    291.22764   -3733.8453   -3234.6911   -3733.8453            0    11781.432    16.945336    19.959368     20.67327    6992.0761    12342.715    11855.057    11146.523   -210.97386    1182.1641    1078.0186 
   22000    309.05869   -3730.9888   -3201.2728   -3730.9888            0    9849.9042    16.946797    19.961089    20.675053     6993.885    11218.309    10279.549     8051.855   -1485.5697   -269.63463    100.57024 
   22500    284.83673   -3718.6122   -3230.4118   -3718.6122            0    9836.8553    16.983115    20.003866    20.719361     7038.946    12402.399    8141.0515    8967.1148   -1084.5128    1417.7872   -1243.3523 
   23000    282.26947   -3713.6994   -3229.8992   -3713.6994            0        11754    16.879906    19.882299    20.593446     6911.394     10530.59    11917.505    12813.905    1971.2607   -712.71327   -299.32683 
   23500    311.11547   -3735.4782    -3202.237   -3735.4782            0    10114.066    16.887811    19.891611     20.60309    6921.1089     9225.592    10405.501    10711.104    969.42574    2000.4121   -924.97387 
   24000    317.56717   -3715.2832    -3170.984   -3715.2832            0    11518.097     16.96559    19.983224     20.69798    7017.1782    11034.666    11983.121    11536.505   -1189.0165    2611.1495   -545.51393 
   24500    287.01583   -3708.8458   -3216.9105   -3708.8458            0    10708.631    17.004956    20.029592    20.746006    7066.1379    8599.9124    12574.468    10951.512    1263.1687    1310.1657    610.88576 
   25000    304.96528   -3744.8825   -3222.1824   -3744.8825            0    8401.1596    17.053405    20.086659    20.805115    7126.7076    9902.6526    7154.8225    8146.0036    1255.2649    266.15182   -759.86369 
   25500    296.82678   -3749.7613   -3241.0103   -3749.7613            0     8591.277    16.938302    19.951082    20.664689    6983.3725    6877.9431    9716.1178    9179.7702   -343.96735    -1055.951    609.42389 
   26000    314.95728   -3712.0713   -3172.2453   -3712.0713            0     10023.08    17.027264    20.055868    20.773222    7093.9838    9032.7029    12338.494    8698.0446    117.27833   -2561.3611   -777.15669 
   26500    284.83635   -3749.1064   -3260.9067   -3749.1064            0    11960.812     16.92195    19.931822     20.64474    6963.1675    9234.1467    13448.785    13199.506   -1928.1581    458.86292   -113.60163 
   27000    313.08295    -3692.015   -3155.4015    -3692.015            0    10703.743     16.93202    19.943683    20.657025    6975.6057    10270.166     11480.88    10360.184   -505.34156   -174.60671   -106.39721 
   27500    310.25321   -3711.9005   -3180.1371   -3711.9005            0    10796.643    16.914581    19.923142    20.635749    6954.0736     9560.635    13135.901    9693.3915     319.3297    362.16849    483.49104 
   28000    286.98532    -3720.005    -3228.122    -3720.005            0     10362.45    17.025533    20.053829     20.77111    7091.8202    10077.819    8621.1525    12388.378   -146.82342    623.86259    132.72375 
   28500    299.43074   -3718.4746   -3205.2606   -3718.4746            0    10080.128    16.912068    19.920182    20.632683    6950.9749    8381.6158    11940.436    9918.3324      299.139    672.99796    1657.4364 
   29000    291.15071   -3758.0471   -3259.0247   -3758.0471            0      8100.83    17.012529    20.038512    20.755246    7075.5834    7928.6369    7312.4398    9061.4133    322.73903    -216.3834   -59.762915 
   29500    305.53678     -3732.56   -3208.8804     -3732.56            0    10388.425    16.973847     19.99295    20.708054    7027.4285    11771.631    10568.206    8825.4374   -1137.7236    142.05466   -141.40517 
   30000    323.70429   -3738.1153   -3183.2973   -3738.1153            0    10322.491    17.020831    20.048291    20.765374    7085.9468    8959.7229    11037.369    10970.381    -943.7395   -168.45546   -1048.4089 
   30500    282.20067   -3723.0431   -3239.3608   -3723.0431            0     10201.68     16.98612    20.007406    20.723027    7042.6832    11309.002    9819.9156    9476.1225    441.96595    721.33441    1085.4541 
   31000    302.10626   -3672.0762   -3154.2764   -3672.0762            0    7901.3921    17.019557     20.04679    20.763819    7084.3551    7063.8908    7847.4268    8792.8586    305.23231    1483.0397   -1192.5171 
   31500    312.37724    -3716.233   -3180.8291    -3716.233            0      11025.4    16.976162    19.995676    20.710878    7030.3042    12627.396    9987.9849    10460.818    -530.5789   -300.05375    53.254185 
   32000    296.57581   -3683.0484   -3174.7276   -3683.0484            0    11459.039     17.01679    20.043531    20.760445    7080.9013    10261.685    10082.707    14032.725    879.24416   -73.501422    85.852231 
   32500    302.24093   -3715.9839   -3197.9533   -3715.9839            0    9898.4519    17.020805     20.04826    20.765343    7085.9143    12339.325    7759.9451    9596.0851    168.37751    707.79269   -400.33281 
   33000    293.12181   -3706.8556   -3204.4549   -3706.8556            0    10726.643    16.994271    20.017006     20.73297    7052.8261    8748.5439    10524.245    12907.139    188.94499   -1216.7405   -326.72018 
   33500    303.27894   -3730.2158   -3210.4061   -3730.2158            0    9455.4643    16.993282    20.015841    20.731764    7051.5951    10571.858    10131.129    7663.4055   -482.60574   -374.09795   -729.92073 
   34000     285.8259   -3743.3252   -3253.4294   -3743.3252            0    8898.9899    17.012359    20.038312    20.755038    7075.3709    10606.946    7943.2112     8146.813   -278.97538    363.86508    200.30037 
   34500    288.27772   -3753.5668   -3259.4687   -3753.5668            0    10561.539    16.907284    19.914547    20.626847    6945.0781    10860.775    8363.2921     12460.55    972.02379   -1211.5996   -136.35814 
   35000    293.66081   -3784.5353   -3281.2108   -3784.5353            0    9237.9307    17.000944    20.024867    20.741112    7061.1384    9310.3048    9798.7409    8604.7464    1174.2645   -554.95712   -812.18743 
   35500    301.50914   -3753.7913    -3237.015   -3753.7913            0    12092.381    16.921844    19.931697    20.644611    6963.0366    13573.105    12040.603    10663.436   -473.74018    299.35227   -1019.2061 
   36000    286.26935   -3716.9219    -3226.266   -3716.9219            0    10704.951    16.911249    19.919217    20.631684    6949.9651    10490.258    10066.003    11558.592   -872.69419    444.58597    177.19334 
   36500    307.21117   -3706.8993   -3180.3499   -3706.8993            0    8559.1831    16.990373    20.012416    20.728216    7047.9751    9327.9303    8889.7624    7459.8568    2806.5623   -405.25209   -605.03486 
   37000    305.77254   -3735.9477    -3211.864   -3735.9477            0    11181.113     16.94134    19.954661    20.668395    6987.1309    8703.3338    13365.158    11474.847    214.82766    730.35406   -207.24271 
   37500    298.96164   -3726.9208   -3214.5108   -3726.9208            0     8523.004    17.013109    20.039195    20.755954    7076.3069    8543.1742    8345.5759    8680.2621    527.62424    295.84624   -464.00035 
   38000    307.25482   -3714.6824   -3188.0581   -3714.6824            0    11597.183      16.8793    19.881586    20.592706    6910.6496    12070.774    9905.6594    12815.114   -361.12142    233.63711    -1150.429 
   38500    292.85947   -3737.3226   -3235.3715   -3737.3226            0    11368.216    16.929776     19.94104    20.654287    6972.8327    9902.4756    10650.768    13551.404    561.66782   -12.864535   -452.65535 
   39000    304.70288   -3760.7732   -3238.5229   -3760.7732            0    10651.533    16.947183    19.961544    20.675524    6994.3633    10658.053    11225.953    10070.593    1378.3786    387.44047    1082.1107 
   39500    298.88922   -3738.2889    -3226.003   -3738.2889            0    9562.5717    16.957141    19.973273    20.687673    7006.6999     8454.602    9909.3667    10323.746     378.8981   -1749.2016   -436.32507 
   40000    296.17841    -3729.971   -3222.3314    -3729.971            0    10884.526    16.948928    19.963598    20.677653    6996.5235    11399.448    10171.184    11082.947   -455.47981   -47.768406   -292.15724 
   40500     294.3624   -3770.6384   -3266.1113   -3770.6384            0    9617.5067    16.951706     19.96687    20.681041     6999.964    8117.9343    10485.472    10249.114    43.874359   -507.78501    1103.3047 
   41000    282.37439   -3707.5174   -3223.5373   -3707.5174            0    10054.102    16.961731    19.978679    20.693273    7012.3912    11990.135     8194.624    9977.5473   -1359.6126   -774.55175    -1131.588 
   41500    308.96304    -3734.028   -3204.4759    -3734.028            0    9789.1579    16.967381    19.985334    20.700165    7019.4007    10545.348    9798.7399    9023.3863    1558.9954    1055.6673    -350.9716 
   42000    294.46378    -3723.254   -3218.5531    -3723.254            0    9475.6507    17.002162    20.026301    20.742598    7062.6558    9999.5933    10054.063    8373.2958    210.20284   -1703.1939   -222.32176 
   42500    304.71845   -3747.5159   -3225.2389   -3747.5159            0    9156.7798    16.994772    20.017597    20.733583    7053.4509    11077.782    8850.6308    7541.9262    110.31946    431.87862   -1391.8637 
   43000    315.63621   -3731.9648   -3190.9752   -3731.9648            0    9452.7688    17.001749    20.025815    20.742094    7062.1412    11389.835    8421.6467    8546.8245    1866.9928    1540.9112   -503.14035 
   43500    299.69475   -3739.0305    -3225.364   -3739.0305            0    10724.434     16.92758    19.938453    20.651608    6970.1195    10812.621    12514.204    8846.4765   -713.59793    1800.2114    205.70165 
   44000    304.32263   -3733.4451   -3211.8465   -3733.4451            0    10442.387    17.042128    20.073376    20.791356    7112.5784    11302.439    10341.949     9682.773   -312.25563     537.8399    835.84762 
   44500    300.67139   -3707.6106   -3192.2702   -3707.6106            0    9396.6983    17.031341     20.06067    20.778196    7099.0804    7538.4771    9615.7373    11035.881   -755.72242     521.8563    174.83092 
   45000    286.40819   -3767.0001   -3276.1062   -3767.0001            0    9101.8689     16.90872    19.916238    20.628599    6946.8476     11252.25    7174.3611    8878.9959   -234.68236   -48.816423   -113.01246 
   45500    293.28172   -3756.3005   -3253.6257   -3756.3005            0    13623.575    16.860583     19.85954    20.569872    6887.6861    14298.155    13891.159     12681.41   -528.58554   -989.84745   -1650.9933 
   46000    299.81988   -3722.8587   -3208.9777   -3722.8587            0    11383.904    16.921915    19.931781    20.644697    6963.1238    11732.183    11341.592    11077.937    522.14206   -500.02355     1078.759 
   46500    315.83852   -3770.4279   -3229.0915   -3770.4279            0    9371.3797    16.925772    19.936324    20.649402    6967.8863     8229.404    12085.392    7799.3427    835.82637   -523.66103   -984.84164 
   47000    294.19462   -3728.5817   -3224.3422   -3728.5817            0    10908.639    16.994458    20.017227    20.733199    7053.0595    10300.626    9861.5679    12563.723     1702.305   -1701.2027    209.26387 
   47500    304.38952   -3722.8787   -3201.1655   -3722.8787            0    9498.0812    16.983659    20.004507    20.720025     7039.623    9632.5006    8860.0247    10001.718   -1182.7373     1009.239    328.15553 
   48000     295.5329   -3701.4053    -3194.872   -3701.4053            0    10033.306    16.981717    20.002219    20.717654    7037.2074     8725.399    11178.265    10196.255    360.15269    1082.2289    220.23075 
   48500    312.46058   -3733.9591   -3198.4123   -3733.9591            0    9942.0361    16.924018    19.934258    20.647262    6965.7201    11592.929    7569.7966    10663.383   -986.13714    1018.6473    2003.8167 
   49000    303.29933    -3705.654   -3185.8093    -3705.654            0    11703.346    16.916162    19.925005    20.637678    6956.0247    11912.737    12310.738    10886.564   -714.80768    239.40085   -902.86768 
   49500    325.92222   -3692.4297   -3133.8101   -3692.4297            0    8666.9309    16.997386    20.020675    20.736771    7056.7054    7638.2415     9707.037    8655.5141    829.83833   -310.35022   -90.008398 
   50000    304.78195   -3723.5913   -3201.2055   -3723.5913            0     10041.09    16.898021    19.903637    20.615546    6933.6697    10182.819    8956.8189    10983.632   -890.26016    -23.33919    689.04738 
   50500     295.1759     -3697.18   -3191.2586     -3697.18            0    9364.2361    16.969168    19.987438    20.702345    7021.6182    9492.4503     10253.32    8346.9384   -965.26964   -982.55078    -519.7771 
   51000    313.85446   -3715.2651   -3177.3293   -3715.2651            0    9184.2676    16.991033    20.013193    20.729021    7048.7961    8711.2039    8891.3736    9950.2253   -197.07949    610.15408   -544.32862 
   51500    293.90446   -3702.0407   -3198.2985   -3702.0407            0    9665.7284    16.999834    20.023559    20.739758    7059.7555    9272.5296    9010.5979    10714.058    136.70631   -398.74815    -1798.196 
   52000    304.81726   -3749.3493    -3226.903   -3749.3493            0    10947.454    16.986798    20.008204    20.723854    7043.5267    8492.3027    12493.125    11856.934   -313.36803   -43.250091     436.0034 
   52500    299.91268   -3723.5085   -3209.4684   -3723.5085            0    10743.292    17.032737    20.062315      20.7799    7100.8271    13339.145    8800.5557    10090.175    448.80198   -1532.3344    527.87899 
   53000      291.727   -3722.8098   -3222.7997   -3722.8098            0    11236.653    16.920889    19.930573    20.643446    6961.8579    11720.568    10842.713    11146.676   -1552.8695    324.04706    81.362514 
   53500    286.46924   -3707.5101   -3216.5116   -3707.5101            0    9930.7835    16.973749    19.992834    20.707934    7027.3069    9577.9109    10712.946    9501.4933    -92.44262   -132.65928    275.77076 
   54000    316.04111    -3719.727   -3178.0434    -3719.727            0    9621.1719    16.975995    19.995479    20.710674    7030.0962    8972.3875    10999.746    8891.3821   -324.27394   -239.32031   -134.71165 
   54500    283.58469   -3738.3992   -3252.3448   -3738.3992            0    10587.162    16.973915     19.99303    20.708137    7027.5133    9597.4051    12148.351    10015.729    827.17967   -918.38886     1188.226 
   55000    307.35427   -3723.1183   -3196.3236   -3723.1183            0     9548.734    16.955122    19.970894     20.68521    7004.1972    10002.208    8557.6423    10086.352    1911.2355    412.66944   -468.93482 
   55500    282.98605   -3717.9234    -3232.895   -3717.9234            0    9231.3535    16.984091    20.005016    20.720552    7040.1604    8802.0691    9341.3895     9550.602   -639.27529    540.52009   -608.16899 
   56000    304.28777     -3654.56   -3133.0212     -3654.56            0    12311.875    16.955973    19.971896    20.686247    7005.2516    10894.781    12418.497    13622.347    1117.7037   -9.1525127   -2419.0624 
   56500    297.48555    -3705.351   -3195.4709    -3705.351            0    10100.323    16.990001    20.011977    20.727762    7047.5118    11500.924    9534.6467    9265.3987    635.09353    1025.1473      392.097 
   57000    316.11733   -3748.7266   -3206.9123   -3748.7266            0    9146.5179    16.991482    20.013722    20.729569    7049.3553    9043.3519    9957.0634    8439.1385    284.09971   -115.19698    487.59721 
   57500     319.6301   -3738.0264   -3190.1913   -3738.0264            0    9629.7524     16.96659    19.984402      20.6992    7018.4188    10867.605    8647.8344    9373.8178    1692.4679   -66.017141      693.285 
   58000    293.66335   -3707.5963   -3204.2674   -3707.5963            0    8572.8919    16.976699    19.996309    20.711533    7030.9716    8688.3214    7650.6706    9379.6838    143.02443    1748.5659    -791.5498 
   58500    313.73078   -3751.9887   -3214.2649   -3751.9887            0    9309.9398    17.006189    20.031044     20.74751    7067.6749    8581.9727    8612.3609    10735.486   -2262.5232   -782.24387   -79.689631 
   59000    298.82034   -3702.6407   -3190.4728   -3702.6407            0    9514.1642     17.00374     20.02816    20.744523    7064.6228     10161.03    9657.3143    8724.1488     1916.582    1239.8681    215.99405 
   59500    300.22665   -3713.8967   -3199.3185   -3713.8967            0    10475.269    16.938568    19.951396    20.665014    6983.7018    11882.758    10545.674     8997.376    369.36899    634.90731   -1060.2324 
   60000    294.43908   -3769.5689   -3264.9103   -3769.5689            0    10763.435    16.982371     20.00299    20.718453    7038.0208    10997.222      11680.6    9612.4838    38.622835   -192.97283    804.60786 
   60500    281.04887   -3726.3519   -3244.6437   -3726.3519            0    11224.118    16.933909    19.945908     20.65933    6977.9408      14703.4    10033.046    8935.9086    370.07535   -1063.8262   -331.20986 
   61000    294.15712   -3719.2169   -3215.0417   -3719.2169            0    10729.251     16.97683    19.996464    20.711693    7031.1347    11072.263    12822.894    8292.5967    643.65423    -1962.506    863.35489 
   61500    313.85876   -3744.3448   -3206.4016   -3744.3448            0    10850.336    16.931149    19.942657    20.655962    6974.5286    11123.044     10235.69    11192.273    1522.9351   -457.38931    1401.0931 
   62000    305.55935   -3727.6666   -3203.9483   -3727.6666            0    9623.4179    16.972807    19.991724    20.706784    7026.1363    8911.5608    9603.7349    10354.958     -142.372    761.48953   -1388.7642 
   62500     298.6931   -3737.8028   -3225.8531   -3737.8028            0    8612.3837     16.96085    19.977641    20.692198    7011.2982     7584.262    10856.406     7396.483    1195.9052   -1736.5145    139.96049 
   63000    304.11417   -3698.2278   -3176.9865   -3698.2278            0    10835.909    16.951362    19.966465    20.680622    6999.5381    11764.134    9505.7525    11237.839    715.55658    -52.31605   -419.88739 
   63500    288.70585   -3764.8103   -3269.9783   -3764.8103            0    9194.0611    16.969244    19.987528    20.702439    7021.7135    8243.4666    11539.844    7798.8727    148.55388    1432.5314   -82.451755 
   64000    300.37485   -3747.7358   -3232.9036   -3747.7358            0    10316.206    17.025846    20.054198    20.771493    7092.2123    7778.9228    10633.649    12536.047    364.21815    1342.8362     798.3026 
   64500    293.41872   -3750.2443   -3247.3346   -3750.2443            0    9305.9014     16.96625    19.984001    20.698785    7017.9968    10628.713    7227.5831    10061.409   -1471.2281    1728.5981   -607.63288 
   65000    295.90339   -3755.1108   -3247.9425   -3755.1108            0    11039.281    16.917989    19.927156    20.639907    6958.2784    8682.4331    14697.865    9737.5446    277.57157    233.03951     1612.704 
   65500    298.86101     -3725.35   -3213.1124     -3725.35            0     9880.151     16.95498    19.970727    20.685036    7004.0208     13259.62    9666.1251    6714.7078    719.53646   -886.89146   -22.793804 
   66000    324.49045   -3727.6959   -3171.5304   -3727.6959            0    12269.248    16.936569    19.949041    20.662575    6981.2293    11727.823    12946.976    12132.945    1036.8547    819.46064    812.87203 
   66500    302.67029   -3731.3334   -3212.5669   -3731.3334            0    9164.7311    16.985293    20.006431    20.722017    7041.6541    8146.9637    9608.2192    9739.0104     1406.046   -1099.3512   -618.17944 
   67000    295.57673   -3743.7284     -3237.12   -3743.7284            0    8848.5989    16.965526    19.983148    20.697902     7017.098    10674.541    8269.2926    7601.9635   -240.98403     -918.815    1399.5399 
   67500    286.00879   -3724.5595   -3234.3502   -3724.5595            0     8954.201    16.934628    19.946755    20.660207    6978.8296     9559.618    8275.7411     9027.244   -1930.4472     1383.349   -476.58833 
   68000    302.86112   -3745.4834   -3226.3898   -3745.4834            0    10557.198    16.940043    19.953133    20.666813    6985.5259    11940.326    10751.577    8979.6899   -1044.6202    -81.26075   -148.26688 
   68500    307.99907   -3709.6292   -3181.7294   -3709.6292            0    10954.248    16.854248    19.852078    20.562143    6879.9253    11234.676    11605.901    10022.167   -311.51792    1955.9348   -1847.4329 
   69000    278.40657   -3737.0578   -3259.8785   -3737.0578            0    11642.386    16.846387    19.842818    20.552552    6870.3028    12531.545    10175.962    12219.651   -938.28594    1099.7405   -1670.7053 
   69500    300.59579   -3755.0848   -3239.8739   -3755.0848            0    11287.431    16.948275    19.962829    20.676856    6995.7144     10036.97     12811.45    11013.873     1561.152   -465.96446    1968.0789 
   70000    304.86311   -3740.3479    -3217.823   -3740.3479            0     8764.059     16.93503    19.947229    20.660697    6979.3266    8460.2233    8928.0289    8903.9247    553.16937    -1962.122     2338.972 
   70500    303.30524   -3758.0996   -3238.2448   -3758.0996            0    9681.9823    16.953335     19.96879    20.683029    7001.9828    12607.409    8147.6403    8290.8976   -834.73911    327.64445   -1341.8905 
   71000    295.21663   -3747.4561   -3241.4649   -3747.4561            0    8598.8794    16.990583    20.012663    20.728472    7048.2359    6479.6477    9349.4042    9967.5862    164.71652    179.14119     650.4416 
   71500    287.69168   -3726.0028   -3232.9091   -3726.0028            0    9443.4194    16.952897    19.968273    20.682495    7001.4397    10683.853    10828.862    6817.5435    -170.2536    1038.5227   -1361.6518 
   72000    321.74703   -3700.3364    -3148.873   -3700.3364            0    10788.549    16.986381    20.007713    20.723345    7043.0081     11515.56    9708.5785    11141.507    39.667629    429.42529   -937.20441 
   72500    297.10072   -3750.8752   -3241.6547   -3750.8752            0    8758.8351      16.9976    20.020928    20.737032    7056.9721     8510.985    9210.5153    8555.0051   -1294.2827    1144.6767   -199.38629 
   73000    279.01891   -3730.8969   -3252.6681   -3730.8969            0    11216.158    16.889998    19.894187    20.605758    6923.7979    10408.465    11616.189    11623.819    1508.5666   -301.10322    1366.7562 
   73500    306.38704   -3711.6486   -3186.5117   -3711.6486            0    7857.7935    16.993246      20.0158    20.731721    7051.5511    6939.2359    8128.5341    8505.6104   -745.71343   -559.09491     123.2245 
   74000    304.65776   -3745.2194   -3223.0464   -3745.2194            0    9253.4621     16.90665      19.9138    20.626073    6944.2965    10499.738    8354.0355     8906.613   -1310.1838    58.226069    132.45623 
   74500    288.27806   -3694.7632   -3200.6645   -3694.7632            0    10460.037    16.965199    19.982763    20.697503    7016.6927    10645.693    12231.149    8503.2684   -935.20948    -1348.565    790.83176 
   75000     285.9217   -3704.2497   -3214.1897   -3704.2497            0    11260.089    16.927498    19.938357    20.651508     6970.018    10205.704    11943.887    11630.674    18.693079   -1020.3652     1046.403 
   75500    288.19647    -3758.466   -3264.5071    -3758.466            0    9506.6374     16.97278    19.991693    20.706752    7026.1039    10464.175    9423.7684    8631.9686   -57.252063   -864.58441   -1036.0143 
   76000    296.21317   -3716.2145   -3208.5152   -3716.2145            0    10423.084    16.942765    19.956339    20.670134     6988.894    9741.4834    8907.8757    12619.892   -130.52229    942.44857   -440.53153 
   76500    282.10633    -3786.441   -3302.9204    -3786.441            0     10328.16    16.944312    19.958161    20.672021     6990.808     10990.73    8518.1625    11475.588    103.38662   -1597.8797    407.05695 
   77000     302.7506   -3762.1626   -3243.2584   -3762.1626            0    11950.376    16.923489    19.933634    20.646617    6965.0668    11119.161    10612.439    14119.528    566.78933    769.98101   -104.86745 
   77500    295.10758   -3711.3581   -3205.5538   -3711.3581            0    11182.223    16.953893    19.969447     20.68371    7002.6741    12080.674    9814.4258    11651.569    1135.7022    800.61442    46.654335 
   78000    314.32077   -3686.7383   -3148.0032   -3686.7383            0    10838.611     16.94021    19.953329    20.667016    6985.7322    13310.654    8590.5217    10614.658    2105.8776   -83.316136    388.12527 
   78500    303.53619   -3753.4553   -3233.2047   -3753.4553            0    11332.111    16.897783    19.903357    20.615256    6933.3769    12862.269    9533.1473    11600.916    656.70622   -1079.4888     297.6382 
   79000    290.00365   -3693.4375   -3196.3811   -3693.4375            0    10795.517    16.898768    19.904517    20.616458    6934.5895    7308.8733    12669.803    12407.876    -181.9999    56.427762    1555.7993 
   79500     297.7439   -3692.3655   -3182.0426   -3692.3655            0    6635.0072    17.035593    20.065679    20.783384    7104.3997    8389.3927    5942.3736    5573.2553    1900.0676   -851.29885   -116.21565 
   80000    311.05899   -3677.9305    -3144.786   -3677.9305            0    9004.6321    16.994537    20.017319    20.733295    7053.1572    10536.798    8679.3881    7797.7102    181.11182    828.83788   -838.14036 
   80500    299.37273   -3713.5328   -3200.4182   -3713.5328            0    10385.688    16.925176    19.935621    20.648675    6967.1496    11136.407     10670.11    9350.5484    320.74602   -576.32519   -2020.3652 
   81000     293.6439   -3709.9205   -3206.6249   -3709.9205            0    9024.0995    16.916462    19.925357    20.638044     6956.394    11026.817    7690.4406    8355.0408    1089.7712    -76.12621    637.14309 
   81500    291.70541    -3751.111   -3251.1379    -3751.111            0    10791.261      16.9329    19.944719    20.658098    6976.6927    10720.468    11056.842    10596.472    694.39423   -1011.4892     3043.409 
   82000    307.89394   -3767.2612   -3239.5415   -3767.2612            0    11702.386    16.907156    19.914397    20.626691    6944.9205    12050.582    9880.1555    13176.422   -438.08186    783.28029    3153.3998 
   82500    325.81775   -3738.9784   -3180.5379   -3738.9784            0    7731.9789    17.002003    20.026114    20.742404    7062.4581    5954.3024    8865.3733    8376.2611    837.64782    741.02876    546.08602 
   83000    278.71497   -3721.4614   -3243.7535   -3721.4614            0    9989.6571    16.964415     19.98184    20.696547    7015.7201    11607.063    9058.6256    9303.2824   -1432.9109    202.06988   -1083.8887 
   83500    308.74591   -3741.9751   -3212.7951   -3741.9751            0    10777.116      16.9094    19.917039    20.629428    6947.6854    12081.372    9155.4985    11094.478       -26.77   -1492.4612    1281.7539 
   84000    331.75373   -3750.7576   -3182.1431   -3750.7576            0    8602.1365    17.023639    20.051599      20.7688    7089.4547    11159.423     7515.207    7131.7792     710.0428    379.37179   -424.16552 
   84500    280.08698   -3710.8739   -3230.8144   -3710.8739            0    8661.2141    17.002464    20.026656    20.742966    7063.0316    8313.5828    8162.4833    9507.5763    983.55857   -2183.1302    207.17214 
   85000    299.74021   -3711.0847   -3197.3402   -3711.0847            0    10897.718    16.926583    19.937279    20.650391    6968.8874    12116.126    11010.844    9566.1829   -1592.2663   -529.68627   -148.28378 
   85500    315.29634   -3715.5798   -3175.1727   -3715.5798            0    8251.4375    16.998672     20.02219     20.73834    7058.3074     8909.504    8290.8675    7553.9411   -1069.7151    1602.2573   -1368.7997 
   86000    299.22651   -3735.2684   -3222.4044   -3735.2684            0    9611.7377    17.009081    20.034451     20.75104    7071.2821    9917.6894    10060.565    8856.9583    843.64774    1075.3422   -583.44028 
   86500    286.61386   -3753.3954    -3262.149   -3753.3954            0    10687.024     16.95127    19.966357     20.68051    6999.4243    12377.756    9777.4783    9905.8376   -417.78874    726.50256    15.645695 
   87000    290.22269   -3747.5785   -3250.1468   -3747.5785            0    9598.9659    16.970889    19.989466    20.704446    7023.7558    10145.599    9144.3061    9506.9929    1719.5771    1602.4849   -577.69312 
   87500    289.96368   -3707.9382   -3210.9504   -3707.9382            0    9908.3403    16.931618     19.94321    20.656535     6975.109    11279.347    8723.6188     9722.055   -1325.5802      2106.98   -1630.5962 
   88000    303.62373   -3701.3308   -3180.9301   -3701.3308            0    9601.0478    17.056492    20.090295    20.808881    7130.5785    9579.0201    10481.242    8742.8817   -2007.4945    1584.4473    971.84614 
   88500    296.70699    -3739.463   -3230.9174    -3739.463            0    10175.895    17.042516    20.073833     20.79183    7113.0641    8306.3672    11192.257    11029.062   -460.23788    1449.0963    2134.5463 
   89000    292.48302   -3756.4248   -3255.1189   -3756.4248            0    10240.121    16.973268    19.992268    20.707348    7026.7098    11773.543    8620.5379    10326.283    -802.6508    1873.4048   -1442.5084 
   89500    279.74951   -3728.8412   -3249.3601   -3728.8412            0    8583.4546    16.978641    19.998596    20.713902    7033.3846    7797.6006    10226.409    7726.3542    408.17142    252.54614    117.40842 
   90000    309.04889   -3738.4328   -3208.7335   -3738.4328            0    11493.958    16.864759    19.864459    20.574967    6892.8055    9611.4157    13992.845    10877.614    508.42697   -645.37341    812.81725 
   90500    312.36474   -3715.4168   -3180.0343   -3715.4168            0    12841.559    16.840546    19.835939    20.545427    6863.1598    12342.946    12564.337    13617.393    279.74485     1166.393    564.01629 
   91000    290.72169   -3752.7542   -3254.4672   -3752.7542            0    10704.185    16.902669    19.909111    20.621217    6939.3924    10450.335    11079.905    10582.315    1321.2661   -1182.7503    1211.0458 
   91500    287.80735   -3779.3409    -3286.049   -3779.3409            0    8995.0751    16.948396    19.962971    20.677003     6995.864    9241.4092    7612.3355     10131.48    1408.9295   -3430.5442    1486.6694 
   92000    330.77321   -3765.1371   -3198.2032   -3765.1371            0    9989.6318    16.916209     19.92506    20.637736    6956.0829    11843.736    7933.4063    10191.754   -1436.1136    654.41014    918.87109 
   92500     293.2994   -3736.5622    -3233.857   -3736.5622            0    10399.347    16.893578    19.898404    20.610126    6928.2021    10629.624    9538.6797    11029.738    2448.1203    -82.71734   -469.04741 
   93000     295.6672   -3740.9989   -3234.2354   -3740.9989            0    9402.0498    16.867252    19.867395    20.578009    6895.8629     8862.979    9038.5187    10304.652    2460.9393    187.89115   -304.70615 
   93500    295.14182   -3765.2133   -3259.3503   -3765.2133            0    9636.8978    16.999977    20.023727    20.739932    7059.9332     9746.943    8436.6082    10727.142   -1117.8285    1254.0154    734.72021 
   94000    284.19561   -3726.0778   -3238.9763   -3726.0778            0     10730.51    16.956754    19.972817      20.6872    7006.2198    12045.964    10394.866    9750.6989   -2050.2942    178.78105    1515.2034 
   94500    304.55618   -3764.6948    -3242.696   -3764.6948            0    10901.106     16.98627    20.007582     20.72321    7042.8697    11155.429    8958.2586    12589.629    1083.1779    3253.8691    587.60562 
   95000    293.72591   -3750.5368   -3247.1007   -3750.5368            0    11395.419    16.893959    19.898853    20.610591    6928.6707    11387.492    12123.681    10675.083    1364.1353   -1634.9524    215.90953 
   95500    297.64461   -3741.1244   -3230.9717   -3741.1244            0    10323.604    16.975016    19.994327     20.70948     7028.881    8974.2648    12445.348    9551.1985    -430.4548   -462.90555    1695.8781 
   96000    305.13999   -3712.1535    -3189.154   -3712.1535            0    9679.2851    16.964666    19.982136    20.696853    7016.0318    11033.413    9492.7423    8511.6996   -828.91291     967.0265    835.79664 
   96500    320.89249   -3688.6822   -3138.6835   -3688.6822            0    12880.152    16.899281     19.90512    20.617083    6935.2199    12886.726    11985.818    13767.911    996.83578   -720.75362     -665.844 
   97000    281.90237   -3672.6157   -3189.4447   -3672.6157            0    10659.608    16.921533    19.931331    20.644231    6962.6523    11598.856    9248.6648    11131.302     -419.657   -623.66147    894.21496 
   97500    301.70956   -3699.5543   -3182.4345   -3699.5543            0    10527.658    16.971509    19.990196    20.705201    7024.5248    12457.224    9898.7076    9227.0417   -120.51905   -1186.7373    1567.9599 
   98000    288.67695    -3751.225   -3256.4426    -3751.225            0    10529.291    16.980575    20.000875    20.716262     7035.789    9640.7725    11200.379    10746.722   -675.45689    1118.6325    -1506.361 
   98500    311.16253   -3708.2264   -3174.9045   -3708.2264            0    11330.054    16.955936    19.971853    20.686202    7005.2053    12750.054    9749.5939    11490.513   -610.78532    139.10012    771.66666 
   99000    296.06679     -3693.77   -3186.3216     -3693.77            0      9956.03    16.966675    19.984502    20.699304    7018.5245    9685.4676    9770.9956    10411.627    241.53147    1553.4819   -1952.6802 
   99500    307.21396   -3678.1344   -3151.5801   -3678.1344            0    10493.738    16.985545    20.006729    20.722325    7041.9682    8360.8204    11253.621    11866.772   -1036.5338     527.2995   -589.12432 
  100000    294.49584   -3730.5163   -3225.7605   -3730.5163            0    11243.742    16.925382    19.935865    20.648927    6967.4051    9078.6178    10513.255    14139.353    640.21933   -544.58509   -312.76286 
  100500    300.10274   -3721.1601   -3206.7943   -3721.1601            0    11063.073    16.945821    19.959939    20.673863     6992.677    9566.2674    13376.333    10246.618    1213.0869    751.70046   -139.93218 
  101000    302.87402   -3805.1141   -3285.9984   -3805.1141            0    8250.5238    17.011766    20.037614    20.754315    7074.6314     8311.551    7747.3968    8692.6235   -52.467898    843.89544   -1069.9549 
  101500    291.88489   -3738.2558   -3237.9751   -3738.2558            0    10284.928    16.923302    19.933415    20.646389    6964.8366    10213.474    9924.1574    10717.154   -1135.1025    1201.5727   -632.71439 
  102000    301.10914   -3747.6916   -3231.6008   -3747.6916            0    9185.0937    17.040297    20.071219    20.789122    7110.2856    9311.0628    10579.133    7665.0858   -994.11503   -933.57072    1869.7741 
  102500    278.75807   -3730.1216   -3252.3398   -3730.1216            0    9278.9201    17.018055    20.045021    20.761987    7082.4797    8649.2621    10141.638    9045.8606    449.33722    469.29633    125.39613 
  103000    288.94658   -3684.1235    -3188.879   -3684.1235            0    11638.866    16.956977    19.973078    20.687472    7006.4955    10980.661    12777.316    11158.623   -2327.6323      392.864    1556.8541 
  103500    306.52877   -3760.3134   -3234.9336   -3760.3134            0    10782.399    16.964403    19.981825    20.696532    7015.7047    9082.3869     10677.05     12587.76   -1491.5407    807.42127    1066.7945 
  104000     308.8801   -3733.4661   -3204.0562   -3733.4661            0    10543.213    16.917896    19.927047    20.639794    6958.1639    11131.038    10977.863    9520.7385    123.07725    203.02932    35.966157 
  104500     293.0262   -3716.0264   -3213.7895   -3716.0264            0    9210.4415    16.986891    20.008314    20.723967    7043.6424     7743.813    11828.346    8059.1658   -298.27218    1504.3606    417.20872 
  105000    305.03185   -3698.8163   -3176.0021   -3698.8163            0    10641.677    16.958828    19.975259    20.689731    7008.7909    10073.083    8602.3985    13249.548   -708.36541     1130.386   -670.22976 
  105500    309.95876   -3700.4813   -3169.2226   -3700.4813            0    8010.7866    17.031253    20.060567    20.778089    7098.9711    8486.5897    6918.8002    8626.9698    1312.3025    -316.5705    543.26804 
  106000    293.43515   -3716.4027   -3213.4649   -3716.4027            0    8789.4618    17.002286    20.026447    20.742749      7062.81    10233.009    8396.6439    7738.7323   -1461.6052   -799.93638   -538.10498 
  106500    313.59774    -3733.444   -3195.9482    -3733.444            0    9717.5509    16.937945    19.950662    20.664253     6982.931    11279.256    7782.1134    10091.283    1721.4249    2.5313294    917.92521 
  107000    308.17802   -3759.1598   -3230.9533   -3759.1598            0    9131.3171    16.982911    20.003626    20.719112    7038.6929    11212.265    8676.4089    7505.2768    91.726121    262.01391    687.50501 
  107500    306.17395   -3755.1254   -3230.3537   -3755.1254            0    9461.8949    17.003305    20.027647    20.743992    7064.0802    11696.303    7921.5956    8767.7856   -542.23177   -877.07082    1749.7236 
  108000    291.73644   -3714.3139   -3214.2876   -3714.3139            0    10572.686    17.031364    20.060697    20.778224    7099.1092     9607.975    11556.997    10553.085   -702.08017   -780.36003   -454.69125 
  108500    307.98624   -3706.6976   -3178.8197   -3706.6976            0    10255.907    16.998701    20.022224    20.738375    7058.3431    10722.085    7459.1108    12586.526    825.06746   -136.60978    -1575.845 
  109000     297.9826   -3703.7262   -3192.9942   -3703.7262            0    11171.421    16.917028    19.926024    20.638734    6957.0923    8977.8646    11114.216    13422.182    976.09048   -251.34977     524.4831 
  109500    280.41747   -3685.2679    -3204.642   -3685.2679            0    11847.716    16.973972    19.993097    20.708206     7027.584    11514.821     12600.78    11427.546    626.68494    1258.3618    -668.0449 
  110000    282.95546   -3715.2196   -3230.2436   -3715.2196            0    9075.9266     17.02282    20.050634    20.767801    7088.4313     9484.431    9597.3038     8146.045    909.79176   -21.734165   -774.22632 
  110500    301.43083      -3714.3   -3197.6579      -3714.3            0    11347.576    16.863552    19.863036    20.573494     6891.325    10207.698    12637.871    11197.158    244.89784    1058.3649    123.79622 
  111000    311.86011   -3751.4586   -3216.9411   -3751.4586            0    10883.955    16.941412    19.954746    20.668484    6987.2203    10492.123    10148.044    12011.697   -191.16521    -381.1192    990.23274 
  111500    323.76941   -3746.0927    -3191.163   -3746.0927            0    10134.531    16.915308    19.923998    20.636636    6954.9704    10468.082     9760.143    10175.367   -1035.8051   -332.80871    169.28842 
  112000    303.54438    -3745.331   -3225.0663    -3745.331            0    10385.052    16.939231    19.952177    20.665823    6984.5221    9711.3761    11081.177    10362.602    1253.0584   -193.78801    -911.5295 
  112500     302.8245   -3741.5417   -3222.5108   -3741.5417            0    11466.832    16.936094    19.948482    20.661995    6980.6419    11671.107    11750.263    10979.125    688.96017    419.25799    426.41449 
  113000    295.93556   -3746.4047   -3239.1813   -3746.4047            0    10710.586    16.889424     19.89351    20.605057    6923.0916    8892.8593    11365.156    11873.742   -1503.5917    109.05089    765.13633 
  113500     293.8009   -3750.2062   -3246.6415   -3750.2062            0    9738.9589    16.986569    20.007934    20.723574    7043.2416    10062.036    9658.3736     9496.467   -782.15203    1307.3222    -738.2231 
  114000    311.66953     -3737.26   -3203.0691     -3737.26            0     10820.44    16.965163    19.982722     20.69746    7016.6487    9059.7854    13196.309    10205.224    447.68338    817.33288   -1080.6249 
  114500    289.10257   -3738.6165   -3243.1046   -3738.6165            0    9379.8049    16.958611    19.975003    20.689465    7008.5214    10040.837    9379.5181    8719.0594     263.7333   -2335.9089   -583.65649 
  115000    297.40462   -3713.8226   -3204.0812   -3713.8226            0    11151.495     16.97391    19.993024    20.708131    7027.5068    10513.143    12625.419    10315.924    453.68364   -3032.3809    710.59936 
  115500    302.20055   -3738.9658   -3221.0045   -3738.9658            0    10719.901    16.961243    19.978104    20.692677    7011.7853    11938.812    10042.623    10178.266    3017.2771    2578.9325    358.52343 
  116000      299.677     -3731.18   -3217.5439     -3731.18            0    10768.904    16.930786    19.942229    20.655519    6974.0799    9619.4516    11777.029    10910.232    295.56583   -307.05929   -961.78446 
  116500    303.17505   -3705.2318   -3185.6002   -3705.2318            0    10662.825    16.929655    19.940897    20.654139    6972.6826    10502.763     10368.35     11117.36    1272.2912    1743.1636   -399.67101 
  117000    291.27295   -3740.7269    -3241.495   -3740.7269            0    9042.0354    16.909922    19.917654    20.630065    6948.3294    8152.7473     8369.788    10603.571   -45.367835   -648.86851   -1349.3094 
  117500     289.0979    -3756.724   -3261.2201    -3756.724            0    8666.2758    16.912022    19.920128    20.632627    6950.9185    9063.7994    8027.2414    8907.7866    1387.4768    425.65339   -106.76937 
  118000    287.26792   -3734.0493   -3241.6819   -3734.0493            0    11215.209     16.89243    19.897051    20.608725    6926.7886    11593.921    8775.0644    13276.642   -808.23383    473.03044    -1381.727 
  118500    297.28738   -3744.5936   -3235.0532   -3744.5936            0    8552.9053    16.931698    19.943304    20.656632    6975.2074    7430.8634     9083.697    9144.1556    731.04539      572.048   -921.83849 
  119000    311.41861   -3747.1442   -3213.3834   -3747.1442            0    11296.622    16.882816    19.885727    20.596996    6914.9689    11861.069    8331.5843    13697.212     154.3732    514.62704   -408.60593 
  119500    297.70689   -3755.3331   -3245.0736   -3755.3331            0    9956.6573    16.925299    19.935767    20.648825    6967.3022    11041.843    9183.0824    9645.0465   -1538.4987    560.78896    93.617919 
  120000    299.41387   -3758.1262   -3244.9411   -3758.1262            0    10859.685     16.89118    19.895579      20.6072    6925.2515    10490.908    9931.3657    12156.783   -267.45588    931.36192   -490.61703 
  120500    311.94765    -3715.012   -3180.3444    -3715.012            0    11921.692    16.886493    19.890058    20.601482    6919.4885    12872.764    11246.256    11646.055    764.38118    83.818862     304.9673 
  121000    290.30122   -3725.4589   -3227.8926   -3725.4589            0    10702.298     16.94726    19.961634    20.675618    6994.4582     11229.92    10768.142    10108.832    -942.5374    142.83695    -892.6997 
  121500    282.55992   -3717.8615   -3233.5635   -3717.8615            0    9152.0517    17.000277    20.024081    20.740298    7060.3069    9839.4229    7686.6697    9930.0626   -145.15886    3027.6128   -642.35325 
  122000    311.61009   -3723.9985   -3189.9094   -3723.9985            0    7045.9253    17.049912    20.082544    20.800853    7122.3285    7346.2668    6618.2524    7173.2567   -671.91892     -306.178    -18.49747 
  122500    311.64274   -3714.3807   -3180.2357   -3714.3807            0        11109     16.96706    19.984955    20.699773    7019.0016    13501.094    9595.4362    10230.469   -115.72152    1459.6499   -242.29364 
  123000    285.74693   -3766.9188   -3277.1584   -3766.9188            0     8517.171    17.060306    20.094787    20.813534     7135.363    9734.2934    8592.8363    7224.3833    675.54718    1327.0402   -1049.2315 
  123500      309.293   -3763.7438   -3233.6262   -3763.7438            0    7460.3962    17.001156    20.025116    20.741371    7061.4025    8860.5706     8381.768    5138.8501   -368.55864    1436.4044    85.748786 
  124000    318.85996   -3732.5017   -3185.9866   -3732.5017            0    6897.2224    16.960002    19.976642    20.691163    7010.2463    5271.7396    7161.6569    8258.2706   -576.45485    2095.1229   -739.84028 
  124500    291.26273   -3695.2969   -3196.0825   -3695.2969            0    9250.6892    16.902497    19.908909    20.621007    6939.1807    9272.0784     10223.85    8256.1393   -1696.9156   -784.55133     372.1561 
  125000    306.97208    -3662.247   -3136.1074    -3662.247            0      11512.3    16.946466    19.960698    20.674649    6993.4749    11212.964    12042.293    11281.642   -176.92392   -1937.8266   -1269.0493 
  125500    296.09732   -3719.4063   -3211.9056   -3719.4063            0    8708.8026    17.055184    20.088754    20.807285    7128.9378    8032.4201    9587.4878       8506.5    203.97792    238.51378   -596.76121 
  126000    301.25743   -3721.8478   -3205.5029   -3721.8478            0    10703.787    16.912848    19.921101    20.633635     6951.937    11390.179    9773.5747    10947.608   -1686.5563   -235.34607   -551.15587 
  126500    303.20185    -3795.379   -3275.7014    -3795.379            0    8770.4035    16.937098    19.949664     20.66322    6981.8835    7356.2561    9847.9827    9106.9716   -388.64442    1647.7919   -792.04474 
  127000    318.09328   -3782.7005   -3237.4995   -3782.7005            0    10323.076    16.956673    19.972721    20.687102    7006.1197    8363.2453    10344.539    12261.443    1783.4959    -845.5079    -697.6215 
  127500    299.64952   -3724.0798   -3210.4908   -3724.0798            0    10858.207     16.93132    19.942859    20.656171    6974.7409    10481.968    11447.787    10644.865   -986.41131   -1011.2085   -364.45131 
  128000    318.57759   -3777.3535   -3231.3224   -3777.3535            0    10274.134    16.943106    19.956741     20.67055     6989.316    9532.7597    11364.601    9925.0411   -1389.6515    942.67096   -173.16588 
  128500    295.76597   -3768.4951   -3261.5624   -3768.4951            0    9979.5033    16.901667    19.907931    20.619994    6938.1586     10339.52    9590.4134    10008.576   -657.89966    1420.5073    -169.6149 
  129000    301.89876   -3730.2865   -3212.8423   -3730.2865            0    9915.5641    17.013499    20.039655    20.756429    7076.7934    10418.909    12203.437    7124.3458   -933.73859   -694.10627    1436.7093 
  129500    313.24986   -3781.8497   -3244.9502   -3781.8497            0    10507.553    16.934952    19.947137    20.660602    6979.2304    11158.779    8243.4573    12120.423     94.91011    -983.8987   -1058.4839 
  130000    293.56646   -3772.8814   -3269.7186   -3772.8814            0    10145.811    16.964093    19.981461    20.696154    7015.3204    8358.2476    11744.711    10334.474   -1511.1455    1213.8774    857.81464 
  130500    300.44897   -3712.6233    -3197.664   -3712.6233            0     10455.07     16.93573    19.948052     20.66155    6980.1911    9476.0332    10550.933    11338.245    1754.8567   -17.532316    95.250118 
  131000    292.63644   -3766.5411   -3264.9723   -3766.5411            0    9391.2806    16.989892    20.011849    20.727629    7047.3764    8452.6991    9175.7791    10545.363   -732.42321    434.67686   -27.112342 
  131500    310.21399   -3730.6279   -3198.9317   -3730.6279            0    9893.8245    16.970806    19.989368    20.704344    7023.6522    11888.597    10406.103    7386.7733    163.65851   -638.20935   -112.31352 
  132000    301.83831   -3693.9751   -3176.6346   -3693.9751            0    9834.3285    17.036742    20.067031    20.784785    7105.8363    6925.0074    11465.222    11112.756    19.823186    2415.3661    1948.8371 
  132500    304.55643   -3703.9169   -3181.9176   -3703.9169            0    9376.9427    16.996377    20.019487     20.73554    7055.4485    11649.397    8247.5881    8233.8433    -866.1359    1325.8009    740.21899 
  133000      299.016    -3739.011   -3226.5078    -3739.011            0    9461.6871    16.987227     20.00871    20.724378    7044.0607    8818.5763     9488.466    10078.019   -815.38355    885.30915   -76.152028 
  133500      289.106   -3689.3086   -3193.7908   -3689.3086            0    10367.061    17.060553    20.095078    20.813835    7135.6726    12369.899    11355.151    7376.1324   -623.75968    -877.2001   -1910.1588 
  134000    293.23075   -3760.6409   -3258.0534   -3760.6409            0    9744.3188    17.025554    20.053854    20.771137    7091.8474    9338.6472    10376.082    9518.2274    -40.41719    284.11458    554.77264 
  134500    312.15318   -3741.9498   -3206.9299   -3741.9498            0    10407.305    16.977642     19.99742    20.712684    7032.1431    11918.077    10248.894    9054.9441    1304.4334   -16.465072    582.74235 
  135000    277.39005   -3729.9754   -3254.5383   -3729.9754            0    9308.3992    16.989755    20.011687    20.727461    7047.2052    8569.8691    8939.0841    10416.244    117.89482   -1948.1712    929.22062 
  135500    298.50986   -3725.3571   -3213.7214   -3725.3571            0    10749.634    16.925124    19.935561    20.648612    6967.0861    10758.296    10546.712    10943.895   -281.66941    802.74623   -1201.6743 
  136000    291.33417   -3716.3109   -3216.9741   -3716.3109            0    10724.354     16.97953    19.999643    20.714986    7034.4889    9060.7602    11652.533    11459.768   -1175.5118     1493.021    -152.2084 
  136500    310.63092   -3725.4313   -3193.0205   -3725.4313            0    10554.943     16.99927    20.022895     20.73907    7059.0528    8300.0382    12409.985    10954.805    261.97602    625.99169   -1068.4371 
  137000    291.94984   -3753.1081   -3252.7161   -3753.1081            0    9915.4235    16.971201    19.989832    20.704825     7024.142    10166.149    9980.8108     9599.311    741.40294   -1026.9515    584.87624 
  137500    327.92609   -3704.7787   -3142.7246   -3704.7787            0    12088.257    16.929287    19.940464    20.653691    6972.2282     11545.07     13581.09    11138.611   -1517.6204   -830.37102    1134.3216 
  138000    313.60967   -3747.9796   -3210.4634   -3747.9796            0    8871.6588    16.952591    19.967913    20.682121    7001.0604    10003.052    9104.8793    7507.0451   -15.524623   -396.91451   -687.56264 
  138500    296.45821   -3703.1356   -3195.0164   -3703.1356            0    11081.231    16.931096    19.942595    20.655897    6974.4634    12172.309    10778.688    10292.697    1984.3446   -878.90834    961.95265 
  139000    280.19457   -3764.3818   -3284.1379   -3764.3818            0    9835.7732    16.944392    19.958255    20.672118     6990.907    9839.4911     9520.093    10147.736   -422.04826   -184.65774    614.00794 
  139500    308.00911   -3741.0116   -3213.0946   -3741.0116            0    10056.795    16.967859    19.985897    20.700749     7019.994    10810.166    9073.2407    10286.977    884.06055     498.9879   -125.49647 
  140000    300.55573   -3749.2525   -3234.1103   -3749.2525            0    8702.0657    17.060506    20.095023    20.813777    7135.6134    10418.057     9139.867    6548.2733   -343.77373   -1318.7318    2041.4381 
  140500    302.67847   -3713.7594   -3194.9789   -3713.7594            0     11381.33    16.952625    19.967953    20.682162    7001.1024    11555.341    9457.1523    13131.496    304.46777   -562.22026   -902.82822 
  141000    298.43386    -3776.887   -3265.3816    -3776.887            0    11083.904    16.985364    20.006516    20.722105    7041.7434    10296.028    10609.607    12346.078   -1504.5935   -271.56194   -1158.9853 
  141500    301.63774   -3769.7241   -3252.7273   -3769.7241            0    7833.8256    17.005895    20.030699    20.747153    7067.3094    6575.8757    10770.379    6155.2221    931.58853   -1364.1705   -264.12178 
  142000    281.10755   -3747.7511   -3265.9424   -3747.7511            0    9080.2099    16.970504    19.989012    20.703976    7023.2775    8714.0475    11272.256    7254.3263   -2540.9793    972.98417   -1613.4858 
  142500     321.4992   -3757.7991   -3206.7605   -3757.7991            0    10848.199    16.923945    19.934172    20.647173    6965.6299    7899.7834    9766.3054    14878.508    579.65155   -344.22249    440.15669 
  143000    286.30723   -3731.2329   -3240.5121   -3731.2329            0    10402.637    16.948644    19.963264    20.677306    6996.1721    10904.674    10152.047    10151.189   -670.13384   -690.18754   -90.342326 
  143500    300.91492   -3744.2768   -3228.5189   -3744.2768            0    10855.891    16.878008    19.880064     20.59113    6909.0631     11259.05    9384.1644    11924.457    441.46247    373.55185   -1082.5032 
  144000    294.09758   -3725.2496   -3221.1764   -3725.2496            0    9150.3725    16.977947    19.997779    20.713056    7032.5224    9826.3452      7352.61    10272.162    -1354.571    1173.4728    123.30376 
  144500    288.13297   -3704.9105   -3211.0604   -3704.9105            0    13142.227    16.858031    19.856534    20.566759    6884.5594    12366.998    12515.146    14544.538   -1429.4619    516.72207    -1499.832 
  145000    301.22562   -3712.5365   -3196.2461   -3712.5365            0    9424.5979    16.997761    20.021117    20.737228    7057.1722    8671.4132    9362.4294    10239.951    95.086892   -10.180458    1592.9718 
  145500    303.67639   -3720.4134   -3199.9224   -3720.4134            0    8956.6973    16.986886    20.008308    20.723961    7043.6361     9232.068    8935.3868    8702.6372    60.595825    294.80216   -1811.8286 
  146000    279.60198   -3694.4396   -3215.2113   -3694.4396            0    10947.416    16.929346    19.940534    20.653763    6972.3012    11702.636    12869.986    8269.6257    1472.6295    3353.0262   -1053.4789 
  146500    302.08669   -3754.4766   -3236.7103   -3754.4766            0    11909.804    16.867235    19.867375    20.577987    6895.8417     12109.77    10094.531    13525.111   -712.72206   -328.90586    836.02857 
  147000    281.65445   -3747.7727   -3265.0267   -3747.7727            0    9736.1408    16.910346    19.918154    20.630582     6948.852    9348.0753    8624.7694    11235.578    517.92597    156.41112   -1596.9217 
  147500    297.97948    -3753.736   -3243.0093    -3753.736            0    9772.6501    16.993975    20.016657    20.732609    7052.4577    7605.9496    11274.736    10437.264    108.60535    478.53206    -506.5788 
  148000    284.47304   -3749.8076   -3262.2305   -3749.8076            0    10588.698    16.963891    19.981223    20.695908    7015.0704    10827.606     12463.54    8474.9466   -194.91448   -650.59527   -921.21356 
  148500    294.92946   -3720.5967   -3215.0977   -3720.5967            0    10583.145    16.914988    19.923621    20.636246     6954.576    10498.644     11735.89    9514.9009    322.40704   -592.73365    116.88579 
  149000    306.32342   -3676.0282   -3151.0004   -3676.0282            0    9173.0182    16.935529    19.947817    20.661306    6979.9436    7423.1396    9400.6419    10695.273   -866.85354    672.21118   -1128.8197 
  149500    303.80761    -3716.094   -3195.3781    -3716.094            0    11511.087    17.014149     20.04042    20.757222    7077.6041    10550.097    14058.244    9924.9199   -316.24502    364.85827    873.99735 
  150000     300.6071   -3760.7884   -3245.5581   -3760.7884            0    10049.834    16.990892    20.013026    20.728848    7048.6203    9408.2972    10914.667    9826.5369   -246.18958     183.5488    831.00409 
  150500    298.05694   -3738.9582   -3228.0988   -3738.9582            0    10743.334    17.013796    20.040005    20.756792    7077.1645    10655.552    10021.055    11553.394    653.94876    2206.6922    1423.0191 
  151000    299.56962    -3687.464    -3174.012    -3687.464            0      9094.27    16.970804    19.989365    20.704341    7023.6494    8484.0312    9902.9056    8895.8732      1328.78   -1075.5937   -272.51745 
  151500    295.75402   -3725.6783   -3218.7661   -3725.6783            0    9102.8977    17.014551    20.040894    20.757713    7078.1066    9158.5305    9433.3607    8716.8019    174.21872   -262.34784    332.62445 
  152000    286.10992   -3742.2304   -3251.8478   -3742.2304            0    8032.2916    16.996212    20.019293     20.73534    7055.2441    8465.1207     7718.879    7912.8751     70.08069    572.25252    1102.8117 
  152500    289.81396   -3722.9614   -3226.2302   -3722.9614            0    12314.416    16.891648     19.89613    20.607771    6925.8271    12294.811    13525.861    11122.574    261.05649    118.10388    898.82197 
  153000     296.8151   -3718.0901   -3209.3591   -3718.0901            0    9754.6149    16.893452    19.898254    20.609971     6928.046    8060.8051     10109.59    11093.449    624.82177   -1723.5518   -729.14303 
  153500    297.33792   -3710.0113   -3200.3843   -3710.0113            0    10461.581    16.920777    19.930441    20.643309    6961.7194    9394.8016     9187.885    12802.057    996.18307     71.25957   -574.41769 
  154000    288.65473   -3750.0766   -3255.3322   -3750.0766            0    11301.543    16.895639    19.900831     20.61264    6930.7373    10457.944    11418.292    12028.393   -1228.0717    480.74339   -499.74432 
  154500     270.3219   -3720.8564   -3257.5339   -3720.8564            0    10684.989    16.943815    19.957576    20.671415    6990.1934    12789.939      9150.54    10114.488    857.68099   -848.05111    418.85755 
  155000    299.22246    -3727.965   -3215.1079    -3727.965            0    11026.715    16.890817    19.895151    20.606757    6924.8047    10163.459    10730.504    12186.181    463.92113   -145.16105    547.66508 
  155500    290.23547    -3729.415   -3231.9614    -3729.415            0    8834.1892    16.961449    19.978347    20.692928    7012.0409    7935.7759    9161.6474    9405.1444   -513.48702    -1327.308   -26.042671 
  156000    278.00651   -3749.7282   -3273.2345   -3749.7282            0    12216.885    16.835882    19.830446    20.539737    6857.4592     11996.36     14082.21    10572.085   -670.05009     -393.903    304.82025 
  156500    294.26761   -3766.2683   -3261.9037   -3766.2683            0    8575.8168    17.023861     20.05186    20.769071    7089.7319    8307.1602     9133.853    8286.4371    945.45422   -869.26872    371.31565 
  157000    299.34835    -3763.223   -3250.1501    -3763.223            0    12463.638    16.855045    19.853017    20.563116    6880.9018    14060.005    11722.217    11608.693   -63.182576      1649.25   -530.02562 
  157500    297.13811   -3745.5534   -3236.2689   -3745.5534            0    9813.6575    16.874728      19.8762    20.587129    6905.0356    10537.173    10750.174    8153.6256   -1449.1108    -93.97626    771.61213 
  158000    301.84762   -3719.2187   -3201.8622   -3719.2187            0    9859.3431    16.897574     19.90311    20.615001    6933.1188    8619.5307    9451.5952    11506.903    224.36094    684.45514   -639.91423 
  158500    303.37527   -3722.3452   -3202.3703   -3722.3452            0    10230.012    16.932297     19.94401    20.657363    6975.9483    11437.739    8767.4739    10484.822    46.014494    932.76265   -339.23162 
  159000    291.24507   -3720.7925   -3221.6084   -3720.7925            0    11524.585    16.955464    19.971296    20.685626    7004.6201    13146.797    9475.3198    11951.639   -1757.2539   -724.70818    212.62268 
  159500       299.52   -3700.3137   -3186.9467   -3700.3137            0    11556.033    17.011005    20.036717    20.753386    7073.6812    12128.416     10202.75    12336.934   -2232.9972    630.33687    215.30089 
  160000    309.98922   -3696.9045   -3165.5936   -3696.9045            0    10544.309    17.022716    20.050511    20.767674    7088.3007        10589    9384.8221    11659.103   -1109.6528    64.535468      1707.18 
  160500    295.05199   -3721.4614   -3215.7524   -3721.4614            0    9633.5052    17.024599    20.052729    20.769972     7090.654    9753.5177    9614.4794    9532.5186    6.6491116    2778.2908    1046.9368 
  161000    277.79173   -3716.4464   -3240.3209   -3716.4464            0    8997.3445    16.963654    19.980944    20.695619    7014.7764    9623.3774    8927.3589    8441.2972   -1812.4111   -1441.1541    63.907091 
  161500    306.94128   -3728.0175   -3201.9306   -3728.0175            0    11037.914    16.934926    19.947106    20.660571    6979.1983    10233.007    10964.713    11916.022    1499.5573    808.10338   -273.39903 
  162000    293.28473   -3729.2449   -3226.5649   -3729.2449            0    9120.7652    17.032697    20.062267    20.779851    7100.7767    9265.2001     7555.662    10541.433    1862.2678    201.67616    98.946884 
  162500    298.49857   -3762.5032   -3250.8868   -3762.5032            0    10133.745    16.967978    19.986037    20.700894    7020.1416    11025.529    9661.6395    9714.0663    1003.9172    148.56633    1052.5589 
  163000     290.7473   -3714.7684   -3216.4375   -3714.7684            0    10374.835    16.999042    20.022626    20.738791    7058.7683    9784.6334    10367.943     10971.93    1009.9744    1306.5411   -477.88172 
  163500     282.8271   -3756.6572   -3271.9013   -3756.6572            0    9334.8056    16.981348    20.001785    20.717205    7036.7493    10921.201    8458.2104    8625.0058    -847.9836   -710.47437   -1175.6566 
  164000    288.79613   -3715.7047    -3220.718   -3715.7047            0    11298.601    16.928604    19.939659    20.652857    6971.3844    9698.2392    11718.344    12479.219   -1679.2092    444.31516   -705.97468 
  164500    296.30166   -3718.8482   -3210.9973   -3718.8482            0    9624.5405    16.970883    19.989458    20.704437    7023.7473    9121.2661    8372.7773    11379.578   -931.03099   -84.274375    484.75687 
  165000    296.14741   -3722.6808   -3215.0942   -3722.6808            0    13399.686    16.877046    19.878931    20.589957    6907.8817    14357.462     12701.15    13140.445   -340.29128    42.383306   -1087.4694 
  165500    285.49693   -3747.0277   -3257.6957   -3747.0277            0    9434.6346    17.035604    20.065691    20.783397    7104.4129    10396.085    7385.9087    10521.911    561.19715    286.51416   -413.11988 
  166000    301.02108   -3729.8291   -3213.8893   -3729.8291            0    9118.4019    17.007397    20.032467    20.748984     7069.181     9426.656    9028.1512    8900.3986    861.92694   -1436.3596   -1377.4934 
  166500    298.54641   -3749.5993   -3237.9009   -3749.5993            0     9082.239    16.997554    20.020873    20.736976    7056.9148    10689.921    8860.2908    7696.5049    947.81127    1064.6842   -992.36774 
  167000     281.2479   -3737.0165   -3254.9672   -3737.0165            0    10312.935    16.930312    19.941671    20.654941    6973.4942    9120.9382    10648.242    11169.625    1179.6617    -794.9012    317.91465 
  167500    292.38392   -3735.2599   -3234.1239   -3735.2599            0    9841.3689    17.021323     20.04887    20.765974    7086.5607    10388.969    10532.398    8602.7394    103.67345    952.66072   -59.011205 
  168000     305.1138   -3683.6042   -3160.6496   -3683.6042            0    10734.578    16.930124     19.94145    20.654712    6973.2627    9911.7204    12784.843    9507.1712    1305.7636    248.40154    159.10358 
  168500    281.34991   -3690.1272   -3207.9031   -3690.1272            0    9473.2697    17.008899    20.034236    20.750817    7071.0544    8239.7903    11931.005    8249.0137    265.79567   -398.30562     -107.822 
  169000    307.60843   -3691.4553   -3164.2249   -3691.4553            0    8201.7814    16.983923    20.004818    20.720347    7039.9511     8523.638    7646.4472    8435.2591    -580.0367   -408.50007    1345.3665 
  169500    296.81571   -3701.4735   -3192.7415   -3701.4735            0    10852.481    16.913243    19.921566    20.634117    6952.4238    12232.126     11024.06    9301.2575    1116.0526   -796.37287   -290.98385 
  170000    312.05643   -3735.0048   -3200.1508   -3735.0048            0    9518.4746    17.013191    20.039292    20.756053     7076.409    10143.259    9148.7769    9263.3876   -758.79845   -965.88825   -580.76499 
  170500    282.99303   -3730.9368   -3245.8964   -3730.9368            0    9924.9954    16.997022    20.020247    20.736328    7056.2528    9575.7655     9451.505    10747.716   -1034.4268   -374.64752   -406.44594 
  171000    299.89227   -3739.1371    -3225.132   -3739.1371            0    9312.4913    17.005037    20.029687    20.746105     7066.239    9165.0958     11783.76    6988.6182    2364.1665    335.59002   -720.14907 
  171500    294.81374   -3714.3096   -3209.0089   -3714.3096            0    10780.674    16.978154    19.998023    20.713308    7032.7792    10083.341    11321.739    10936.942   -550.41477    246.78226    1196.9556 
  172000    304.82991   -3749.8459   -3227.3779   -3749.8459            0    10022.051    16.965437    19.983044    20.697794    7016.9885    10819.533    10885.274    8361.3441   -1165.2398   -322.35897   -829.69117 
  172500    313.54506   -3731.6569   -3194.2514   -3731.6569            0    9308.5935    16.994398    20.017156    20.733126    7052.9849    9885.4387    7863.7044    10176.637   -186.13687    2037.9982    290.39286 
  173000    307.97178    -3767.944   -3240.0909    -3767.944            0    8117.9282     17.00747    20.032553    20.749073    7069.2723    8425.2982    7596.1477    8332.3388     1167.612   -234.43642    1011.1369 
  173500    304.66908   -3735.1083    -3212.916   -3735.1083            0    7918.4859    17.020772    20.048221    20.765302    7085.8729    8549.0705    7599.2653    7607.1219    773.43079    1191.0118    1990.9212 
  174000    292.80082   -3711.8083   -3209.9577   -3711.8083            0    11469.048    16.889915    19.894088    20.605656    6923.6953    12882.422    11049.267    10475.456   -709.76634   -1119.3861   -667.55559 
  174500    317.83573   -3734.5116    -3189.752   -3734.5116            0    11268.534    16.933234    19.945113    20.658506    6977.1062    14247.981    8549.9098    11007.712   -104.03649    542.62319    1041.7058 
  175000    296.10439   -3715.8155   -3208.3027   -3715.8155            0    8386.3969    16.970778    19.989335     20.70431    7023.6178    8661.7476    9322.5909    7174.8522    -1901.648    1255.0008    278.69428 
  175500    289.38864    -3774.133   -3278.1307    -3774.133            0    12451.723    16.901331    19.907535    20.619584    6937.7442    14786.989    11349.449     11218.73    889.46451    530.74609    1204.3093 
  176000    314.22021   -3786.1775   -3247.6148   -3786.1775            0    10488.843    16.933219    19.945095    20.658487    6977.0869    9333.1447    10168.634    11964.751   -555.66401    728.81103   -1890.5806 
  176500    304.54102   -3751.3158   -3229.3429   -3751.3158            0    10645.012    16.969045    19.987294    20.702195    7021.4659     10432.65     10449.69    11052.695   -99.835859    574.36366   -698.74955 
  177000    307.87898   -3727.8544   -3200.1604   -3727.8544            0    9146.5729    16.975181    19.994521    20.709682    7029.0861     8075.371    8972.0166    10392.331     361.3082   -93.927961   -1688.1465 
  177500    289.85698   -3706.7071   -3209.9022   -3706.7071            0    10247.409    16.936484    19.948941    20.662471    6981.1241    9968.3698    12509.132    8264.7258   -16.313716    455.18461    1283.0489 
  178000    296.34057   -3701.3717   -3193.4541   -3701.3717            0    8816.0253    16.971177    19.989804    20.704796    7024.1125    8406.5555    8198.1208    9843.3995   -580.68111    473.62519   -757.08773 
  178500    294.77475   -3774.4767   -3269.2429   -3774.4767            0    8447.8638    16.962339    19.979394    20.694013    7013.1443    7912.2998    7445.9636    9985.3279    234.52757   -2036.0025    687.94316 
  179000    285.96982   -3706.6212   -3216.4788   -3706.6212            0    10002.408    16.939751    19.952789    20.666457    6985.1647    11836.649    8835.0622    9335.5137   -615.20773   -757.06453   -409.82753 
  179500    301.98134   -3755.1472   -3237.5616   -3755.1472            0    10093.147    16.937155    19.949731     20.66329    6981.9539    9485.8221    10514.607    10279.012   -552.88256   -244.16921    429.84687 
  180000    294.25874   -3748.1096   -3243.7602   -3748.1096            0    8048.2335    16.984431    20.005417    20.720967     7040.583    7240.1611    9636.3608    7268.1787    490.07786    591.99937     177.1294 
  180500    306.54904   -3730.4714   -3205.0569   -3730.4714            0    9088.2698    16.898226    19.903878    20.615797     6933.922    9964.3444    8769.2784    8531.1867   -379.85937   -313.49794    289.93885 
  181000    301.80223   -3736.7728   -3219.4941   -3736.7728            0    10207.549    16.921038    19.930748    20.643627    6962.0415    10664.876    11487.403    8470.3664    1150.7539   -907.18038    1159.9838 
  181500    298.50526   -3739.9897   -3228.3618   -3739.9897            0    7783.9608    16.944237    19.958073     20.67193    6990.7157    8935.0182    6340.4513    8076.4128    800.63384     952.2291    926.32073 
  182000    318.26085   -3749.7702    -3204.282   -3749.7702            0    11143.918    16.898824    19.904583    20.616526    6934.6579    10449.011     12127.03    10855.713    529.65901   -2515.3273   -2030.4226 
  182500    302.35791    -3768.403   -3250.1719    -3768.403            0    10604.074    16.907191    19.914438    20.626733    6944.9633    10195.826    8980.1989    12636.199    2049.1378    -410.4367    160.04735 
  183000    296.38248    -3762.491   -3254.5016    -3762.491            0    10870.342    16.894324    19.899283    20.611036    6929.1198    11434.822    11110.241    10065.964   -902.86586     146.0879    651.75861 
  183500    290.45383   -3737.4425   -3239.6146   -3737.4425            0    9331.0735    16.905437    19.912372    20.624594    6942.8022    8855.7769    9976.5136    9160.9301   -1749.6975     761.7807    34.414659 
  184000    302.05341   -3764.1229   -3246.4137   -3764.1229            0    10045.121    16.938858    19.951737    20.665367    6984.0599    10537.965    9713.1969    9884.2015   -939.51304    133.05386     1278.804 
  184500    303.80014   -3701.4493   -3180.7463   -3701.4493            0    11229.746    16.916591    19.925509    20.638201    6956.5532    11467.746    12474.648     9746.845    1571.6017    820.39612   -736.60972 
  185000    305.63896   -3737.2774   -3213.4227   -3737.2774            0    8759.7598     16.97076    19.989314    20.704288    7023.5953     6986.167     10589.47    8703.6423   -447.31865    1529.5842   -761.32766 
  185500    305.24787   -3695.5907   -3172.4063   -3695.5907            0    8161.2203    16.923978     19.93421    20.647213    6965.6706    7719.8675    9330.7807    7433.0126    -587.0788   -1303.2911   -1678.5279 
  186000    298.97595   -3688.6872   -3176.2527   -3688.6872            0    11442.192    16.881776    19.884503    20.595728    6913.6919    10868.029    11532.916     11925.63    2027.2576    2031.3483   -1299.3618 
  186500    289.46543   -3719.2705   -3223.1367   -3719.2705            0    10382.942    16.952014    19.967234    20.681418    7000.3465    9789.1002    10772.481    10587.245   -524.74207     586.6386   -1399.4082 
  187000    296.43987   -3727.6417   -3219.5539   -3727.6417            0    8742.7723      16.8842    19.887358    20.598685    6916.6703    9652.1307    7058.2002    9517.9859   -258.16768    1951.9538   -124.57641 
  187500    290.92011   -3726.0478   -3227.4207   -3726.0478            0    10309.679    16.917806     19.92694    20.639683    6958.0523    12807.277    10920.746    7201.0154    146.14687    372.10466    727.51776 
  188000    311.64706   -3744.4233   -3210.2709   -3744.4233            0    9527.6044      16.9648    19.982293    20.697016    7016.1977     8773.979    8617.9111    11190.923     818.2348    15.180209     599.5539 
  188500     286.2378   -3732.8343   -3242.2325   -3732.8343            0    10178.072    16.967253    19.985183    20.700009    7019.2418    8915.2002    10916.969    10702.048    1114.4202   -836.64811    668.60149 
  189000    274.76359   -3741.9832   -3271.0478   -3741.9832            0    8775.4105     16.95782    19.974072    20.688501    7007.5412    9230.9402    10045.645    7049.6461    1066.0063   -812.00979    50.046226 
  189500    296.56666   -3750.7499   -3242.4448   -3750.7499            0    9226.5011    16.953152    19.968574    20.682806    7001.7563    10959.464    8577.9299    8142.1096   -2555.1225    679.44199   -852.54257 
  190000    305.38721   -3694.3371   -3170.9139   -3694.3371            0    8901.1852    16.964733    19.982215    20.696935    7016.1149    8981.1003    7574.5235    10147.932   -1782.9199    516.92934    552.06239 
  190500    301.96062   -3714.9926   -3197.4425   -3714.9926            0    9775.3602    16.959085    19.975562    20.690045    7009.1099    8050.2053    10732.664    10543.211   -159.32221   -335.99107    535.55203 
  191000    304.77758   -3720.0415   -3197.6632   -3720.0415            0    11095.846    16.871098    19.871925      20.5827    6900.5806    10418.981    12209.297     10659.26    1320.5569   -304.59089    -959.6949 
  191500    300.38201   -3754.8017   -3239.9573   -3754.8017            0    9334.4994    16.958952    19.975405    20.689881     7008.944    9960.4752     9286.054     8756.969    903.56561    1023.6645    1583.4252 
  192000    307.51237   -3729.5634   -3202.4977   -3729.5634            0    10039.963    16.942487    19.956012    20.669795      6988.55    9256.4529    9648.6881    11214.747   -818.50031   -1213.6222   -602.03899 
  192500     308.1792   -3708.9735   -3180.7649   -3708.9735            0    9933.1151     16.95749    19.973683    20.688098    7007.1318    9392.8743    11453.255    8953.2156    80.559573    555.07159   -799.91741 
  193000    298.72575   -3722.1458   -3210.1401   -3722.1458            0    9640.7831    16.929349    19.940537    20.653766    6972.3047    10264.389    9413.3935    9244.5663   -508.70105   -1120.0419    1414.8507 
  193500    295.16863   -3744.9377   -3239.0288   -3744.9377            0    8788.3565    16.961904    19.978882    20.693483    7012.6052    8233.9735    10652.741    7478.3554   -645.47028   -378.88301   -883.19882 
  194000    303.75765   -3704.9197   -3184.2895   -3704.9197            0    10298.571    16.945452    19.959505    20.673412    6992.2202    9345.0542    11945.496    9605.1643    147.49724    135.09904    281.81317 
  194500    301.06491   -3729.7416   -3213.7267   -3729.7416            0    8203.0566    17.029546    20.058556    20.776006    7096.8362    9490.5533    6828.1724    8290.4442   -992.46274    555.93243   -984.47009 
  195000    292.21462   -3744.9018    -3244.056   -3744.9018            0    8369.3852     16.95933    19.975851    20.690344    7009.4138    9375.5338    6510.8626    9221.7593   -692.53213    412.12908   -1885.0775 
  195500    315.44868   -3729.6802    -3189.012   -3729.6802            0    10105.919    16.934936    19.947117    20.660582    6979.2094    11169.905    9496.8209    9651.0321    403.94707   -877.92268    -1022.586 
  196000    291.75309   -3750.8864   -3250.8316   -3750.8864            0    8839.1197    16.955877    19.971783     20.68613    7005.1321    10091.964     7939.081     8486.314    3.7916199   -786.00264    351.02114 
  196500    313.06098    -3731.563   -3194.9871    -3731.563            0     8314.873    16.972008    19.990783     20.70581    7025.1443    9297.5538    7407.4584    8239.6069    365.59537    909.72309    964.97287 
  197000    286.24534   -3705.6318   -3215.0171   -3705.6318            0    10093.227    17.030839    20.060078    20.777583    7098.4526    8953.4719    11282.755    10043.455   -177.40674   -1545.1915    1336.6002 
  197500    296.96122   -3732.0798   -3223.0984   -3732.0798            0    8743.1419    17.002708    20.026944    20.743264    7063.3358    7794.3607    8803.6208    9631.4441   -131.28959     987.5281    241.13297 
  198000    296.13604   -3735.0209   -3227.4539   -3735.0209            0    8912.6091    16.973459    19.992493     20.70758    7026.9467    7281.0465      9571.82    9884.9607   -72.522372    819.35063    163.65038 
  198500    313.25457   -3764.5721   -3227.6644   -3764.5721            0    9777.0603     17.00708    20.032093    20.748598    7068.7859    10476.485    9674.5733    9180.1221   -1054.8585    1934.6907    1232.0627 
  199000    314.61482   -3734.3279   -3195.0889   -3734.3279            0    10429.232    16.930013    19.941319    20.654576    6973.1248    9499.8867    11417.195    10370.615    144.27926    236.24352    864.58734 
  199500    313.37358   -3727.6576    -3190.546   -3727.6576            0    9894.8689    17.006729    20.031681     20.74817    7068.3492    10399.172    8978.0763    10307.359   -1578.9146   -1240.3213   -788.30542 
  200000    294.92306   -3719.2906   -3213.8026   -3719.2906            0    9730.8688    16.983036    20.003773    20.719265    7038.8482     9459.404    10437.133    9296.0691    49.564066     1731.368    640.50717 
  200500    292.73436    -3742.119   -3240.3823    -3742.119            0    10625.687    17.012949    20.039007    20.755759    7076.1075    11116.018     9477.843    11283.201    1103.7614     -969.909   -296.17464 
  201000    288.91849   -3698.1527   -3202.9563   -3698.1527            0    10104.277    16.944893    19.958845     20.67273    6991.5274     8748.479     10839.17    10725.181    1635.5525    1429.2318   -1561.3611 
  201500    305.18895   -3726.5191   -3203.4356   -3726.5191            0    10381.253    16.954272    19.969893    20.684172    7003.1435    10276.714    11064.184    9802.8603    239.08634   -1716.3329    1786.5514 
  202000    288.55058   -3694.1325   -3199.5667   -3694.1325            0    9922.0586     16.98425    20.005203    20.720746    7040.3578    11839.626    8696.8216    9229.7278    1001.2689    493.34248    941.17979 
  202500    301.28374   -3737.2104   -3220.8204   -3737.2104            0    11963.413    16.920665    19.930308    20.643172    6961.5808    11506.162    12931.775    11452.304   -257.08694   -623.99984   -747.42244 
  203000    298.32511   -3760.0856   -3248.7666   -3760.0856            0     9693.784    16.972367    19.991206    20.706248      7025.59    8712.7512     11037.75    9330.8512   -956.90075   -79.743906   -81.368562 
  203500    320.29736   -3741.9579   -3192.9792   -3741.9579            0    12152.173    16.880267    19.882725    20.593886    6911.8377    10649.462      13634.9    12172.156    2597.8042    1521.5625   -677.25124 
  204000    295.82075   -3716.1343   -3209.1077   -3716.1343            0    12028.306    16.975698     19.99513    20.710312    7029.7277    11875.712    12714.868    11494.337   -411.86134   -215.28988     684.4479 
  204500    297.79839    -3720.659   -3210.2428    -3720.659            0    10675.616    16.956549    19.972574     20.68695     7005.965    11511.721    11571.904    8943.2242   -739.77866    944.77764   -327.59684 
  205000    281.02234   -3727.5241   -3245.8614   -3727.5241            0    9592.9021    17.066623    20.102227     20.82124    7143.2913    8506.4011    11347.868     8924.437   -123.18414   -2511.3287   -770.11142 
  205500    300.47223   -3714.0837   -3199.0846   -3714.0837            0    9141.4017    17.096307    20.137191    20.857455    7180.6293    9100.3022    8112.0522    10211.851    -15.82056   -466.14624    936.08055 
  206000    287.46125   -3730.1978    -3237.499   -3730.1978            0    7619.0482    16.992707    20.015164    20.731062    7050.8792    9008.8453     6793.598    7054.7012   -659.25059    261.52715    96.477961 
  206500    296.69037   -3712.3382   -3203.8211   -3712.3382            0     9900.211    16.994074    20.016775    20.732731    7052.5817    12026.415    9078.2894    8595.9288    612.87441   -1315.7075    407.93132 
  207000    292.01401   -3723.0606   -3222.5585   -3723.0606            0    10878.203    17.015608    20.042138    20.759001    7079.4248    11492.592    9985.4626    11156.555   -254.52327   -84.064498   -237.57012 
  207500    301.59293   -3738.0789   -3221.1589   -3738.0789            0    8150.5315    17.029929    20.059007    20.776474    7097.3155     8113.968     7650.734    8686.8924    443.27624   -2373.4558   -458.08353 
  208000    296.10357   -3712.7787   -3205.2673   -3712.7787            0    10623.937    17.009402    20.034829    20.751431    7071.6821    10506.886    10638.623      10726.3   -60.091893    160.63011   -1542.4095 
  208500    287.86916   -3723.9438   -3230.5459   -3723.9438            0     10654.63    16.924625    19.934972    20.648003    6966.4695    10900.049    10394.496    10669.344    901.03951   -603.38528   -142.24016 
  209000    293.33645   -3735.9369   -3233.1682   -3735.9369            0    10586.721    16.915333    19.924028    20.636667    6955.0022    10316.499    12757.067    8686.5976   -807.18469    118.23156   -1006.3579 
  209500    299.58322   -3731.4653   -3217.9899   -3731.4653            0    9881.3185    16.947955    19.962452    20.676465    6995.3183    9944.7903    8704.4861    10994.679    1057.6845   -677.79774    -96.21857 
  210000    326.73054    -3725.878   -3165.8731    -3725.878            0    11031.638    16.979079    19.999112    20.714436    7033.9286    10498.053    11525.284    11071.577    507.17292    -338.5815    458.97308 
  210500    309.78892   -3702.0064   -3171.0388   -3702.0064            0     10102.67    16.951204    19.966279    20.680429    6999.3419    9764.6354    11529.947    9013.4272    1855.5555   -145.62497   -724.14424 
  211000    280.74649   -3698.7355   -3217.5456   -3698.7355            0    10109.624    17.028663    20.057516     20.77493    7095.7331    9834.8498    10724.499    9769.5245    1080.0422   -12.411989    270.45254 
  211500    314.75198   -3702.6052   -3163.1311   -3702.6052            0    11174.491    16.924214    19.934489    20.647502    6965.9624    11075.487    9418.0854      13029.9    845.16786    12.027704    295.58694 
  212000    301.16423   -3726.9421    -3210.757   -3726.9421            0    9918.2929    16.951324    19.966421    20.680576    6999.4914    9788.1356     9239.497    10727.246    134.35263    -153.8379    446.22388 
  212500    298.21636   -3686.1897   -3175.0571   -3686.1897            0    10024.319    16.946413    19.960636    20.674584    6993.4094    8279.7101    12428.765    9364.4824    1163.5183   -797.48274   -770.08195 
  213000    302.41114   -3682.4186   -3164.0963   -3682.4186            0    10827.467    16.954183    19.969788    20.684063    7003.0327    10928.883    11254.163    10299.356    568.61502    1621.0056     112.7945 
  213500     300.8205   -3728.0314   -3212.4354   -3728.0314            0    10168.849    16.990015    20.011993    20.727778    7047.5289    10377.066    10163.718    9965.7612   -589.91767   -1786.6657    1765.5864 
  214000    305.92485   -3751.6166   -3227.2718   -3751.6166            0    10942.525    16.950314    19.965231    20.679344    6998.2402    10994.085    12138.567    9694.9224   -123.23366   -638.79281    1735.8959 
  214500    295.32524   -3731.7802   -3225.6028   -3731.7802            0    11059.341    16.913919    19.922362    20.634942    6953.2576    8658.4318    11267.331     13252.26   -2712.1854     1336.079    1328.6005 
  215000    285.87626   -3793.3745   -3303.3924   -3793.3745            0    7081.2288    17.005806    20.030594    20.747044    7067.1984    6955.3516    7800.6457    6487.6892   -1429.2299   -275.07615    229.09153 
  215500    308.64916   -3757.4702   -3228.4561   -3757.4702            0    10869.807    16.893738    19.898592    20.610321    6928.3989    9248.2698    10084.594    13276.557   -686.11501   -109.24008    1801.4548 
  216000    276.68182   -3733.5586   -3259.3354   -3733.5586            0    7967.7098    16.995964       20.019    20.735036    7054.9345    10171.129    7102.0637    6629.9368   -1525.0525   -76.879763   -758.58176 
  216500    294.90472   -3733.1041   -3227.6475   -3733.1041            0    10163.599    16.924691    19.935051    20.648084    6966.5514    10650.311    8684.2518    11156.234   -731.76371   -1349.8882    1135.4671 
  217000    291.57209   -3767.0491   -3267.3045   -3767.0491            0    10548.242    16.881212    19.883838    20.595039    6912.9981    10889.049    11078.259    9677.4172    95.203292    164.14787   -339.32188 
  217500    302.21939   -3744.7368   -3226.7431   -3744.7368            0    10382.226     16.95693    19.973024    20.687415    7006.4381    8226.4504    10989.562    11930.665    942.57496    169.01695    578.88154 
  218000    303.40381   -3737.4486   -3217.4248   -3737.4486            0    10269.143     16.96433     19.98174    20.696443    7015.6145    9704.4952    9448.0776    11654.857   -502.27808   -3180.8705    -495.3579 
  218500    289.71599    -3704.537   -3207.9737    -3704.537            0    9341.0915    16.996969    20.020185    20.736263    7056.1864    10056.659    9712.1216    8254.4939   -855.99081   -970.37507    1119.0304 
  219000    308.66058   -3727.2889   -3198.2552   -3727.2889            0    10991.354    16.970043    19.988469    20.703413     7022.705    10774.389    11464.948    10734.726   -607.99531    834.34152    2073.4462 
  219500    311.10365   -3713.3268   -3180.1058   -3713.3268            0    8485.1573     17.00391     20.02836     20.74473    7064.8343     6769.904    9994.9842    8690.5837    576.03519   -520.85382    728.24978 
  220000    296.86832   -3774.1469   -3265.3248   -3774.1469            0    8300.1129     16.99498    20.017841    20.733836    7053.7092    8038.4323      8127.78    8734.1265   -1332.7635    88.715779    1872.2478 
  220500    292.89383    -3753.944    -3251.934    -3753.944            0    8166.3394    16.948849    19.963505    20.677556    6996.4252    7253.8868    7983.5057    9261.6256   -131.20421   -526.68147   -337.28149 
  221000    299.25569   -3716.7719   -3203.8579   -3716.7719            0    9488.2192    16.951066    19.966116     20.68026     6999.171    9710.3754    10120.001    8634.2813   -258.60053   -1003.3915    1412.9186 
  221500    274.25072   -3768.7375   -3298.6812   -3768.7375            0    8724.2268    16.973501    19.992542    20.707631    7026.9986    9984.8645    8910.6493    7277.1665   -703.40229   -810.59982   -350.41838 
  222000    302.91409   -3744.4652   -3225.2808   -3744.4652            0    7560.2961    16.997178     20.02043    20.736517    7056.4463    7403.1961    8846.1355    6431.5567   -675.41804   -178.38208    1127.4775 
  222500    311.52234   -3730.7913   -3196.8527   -3730.7913            0    9203.8859     16.97991    20.000091    20.715451    7034.9618    8136.8681    9509.4472    9965.3425    1353.3262   -1850.2373   -722.05981 
  223000    289.85619   -3706.4869   -3209.6834   -3706.4869            0    11786.572     16.89836    19.904036     20.61596    6934.0865    10806.041     10446.34    14107.334    1415.5208   -708.43727    1345.4353 
  223500    303.25303   -3722.0163    -3202.251   -3722.0163            0    11213.288    16.937143    19.949718    20.663275    6981.9395    10739.483    11499.367    11401.014   -10.622041   -788.78805   -2606.8191 
  224000    302.09708   -3735.7548   -3217.9707   -3735.7548            0    9564.7198    16.968229    19.986333      20.7012    7020.4532    11142.193    8794.6421     8757.324   -1659.6631    1005.5963    933.25342 
  224500    289.29697   -3726.4131    -3230.568   -3726.4131            0    10664.596    16.917773    19.926902    20.639643    6958.0117    10519.364    11877.942    9596.4814    34.404278    882.63892   -1416.4112 
  225000    299.27772   -3730.4416   -3217.4898   -3730.4416            0    11009.395    16.886068    19.889558    20.600964    6918.9664     11181.91    9101.0985    12745.177     2858.769   -1271.6174   -529.79025 
  225500    302.36391   -3682.7232   -3164.4818   -3682.7232            0     11658.11    16.901441    19.907665    20.619719    6937.8801    11747.935    11360.384     11866.01     1299.249   -1209.0543    1149.3118 
  226000    315.27265   -3733.2887   -3192.9222   -3733.2887            0    8359.9807    16.965799     19.98347    20.698235    7017.4374    10139.289    6875.7547    8064.8979    235.23969   -1700.9597   -1349.2868 
  226500    301.10767   -3717.2084   -3201.1202   -3717.2084            0    9779.5796     16.99106    20.013224    20.729053     7048.829    8996.9585    8864.3566    11477.424   -236.94765   -1006.9919   -184.73038 
  227000    315.27822   -3673.8844   -3133.5084   -3673.8844            0    11082.505    16.935731    19.948054    20.661552     6980.193    10771.091    9094.4304    13381.993    1071.1647   -1278.9122   -1011.0135 
  227500    307.48147   -3710.5985   -3183.5858   -3710.5985            0    8767.5516     16.98896    20.010751    20.726492    7046.2167     9871.619    7275.5853    9155.4506    146.59585   -383.83996   -657.58628 
  228000    296.94466   -3677.0056   -3168.0526   -3677.0056            0    9452.7926    17.013651    20.039834    20.756615     7076.983    10724.199    7709.2388    9924.9402   -1024.1094   -670.07115    207.85139 
  228500    299.67386   -3680.3063   -3166.6756   -3680.3063            0    11376.398    17.013132    20.039222    20.755981    7076.3352    11716.995    11081.971    11330.229    1388.1614   -1715.5724   -534.12507 
  229000    297.97109   -3730.0174   -3219.3051   -3730.0174            0    8663.2935    17.025055    20.053266    20.770528    7091.2237    9097.8734    6566.7185    10325.289   -636.22871    102.22496    56.289162 
  229500    295.54093   -3723.0774   -3216.5303   -3723.0774            0    11037.196    16.965742    19.983403    20.698166     7017.367    9483.7239    11744.111    11883.753   -1097.5223   -282.42835    1267.8951 
  230000    298.59636   -3698.4455   -3186.6616   -3698.4455            0    9861.8256    17.034427    20.064305    20.781961    7102.9405    9728.5457     11829.34    8027.5913    1096.2778   -1461.6152   -63.441906 
  230500      306.128   -3716.1367   -3191.4437   -3716.1367            0    13323.192    16.878824    19.881026    20.592126    6910.0656    12432.866    14751.238    12785.472    211.92471   -797.80012    2201.8094 
  231000    301.80773   -3724.9911    -3207.703   -3724.9911            0    9019.6641    16.989467    20.011348    20.727111    7046.8477    8239.4592    7717.6485    11101.885    76.673559   -1207.0955   -618.18975 
  231500    307.96892   -3727.9255   -3200.0773   -3727.9255            0    10730.851    16.906836    19.914019      20.6263    6944.5255    13921.567     8757.668    9513.3167    594.14497    1182.4722   -1936.6665 
  232000     297.3905   -3731.5539   -3221.8368   -3731.5539            0    10527.408    16.905949    19.912975    20.625218    6943.4331    10264.586    11994.717    9322.9215    953.87609   -1170.2778    1097.4192 
  232500    297.35059   -3737.5722   -3227.9234   -3737.5722            0    9520.5575    16.973904    19.993016    20.708123    7027.4988    9083.3083    9307.0034    10171.361   -702.25677     733.4646    1552.5597 
  233000    303.37179   -3746.5191   -3226.5502   -3746.5191            0    9450.9601     16.95425    19.969867    20.684146    7003.1165    7954.0298    10784.153    9614.6974    69.848132   -648.66984   -442.07412 
  233500    305.49727   -3741.5826   -3217.9708   -3741.5826            0    10158.172    16.978278    19.998168    20.713459     7032.933    8710.8843    11556.341     10207.29    348.07677   -49.448753    242.49814 
  234000    315.65156   -3710.0834   -3169.0674   -3710.0834            0     8417.124     16.95823    19.974555    20.689001    7008.0497    8594.4783    7907.6123    8749.2814    1405.7191    38.224507   -668.44909 
  234500    311.72247   -3743.0623   -3208.7806   -3743.0623            0    9887.1254    16.976914    19.996562    20.711795    7031.2382    13359.456     6392.199    9909.7209   -471.40742    467.30568   -1601.6177 
  235000    288.54483    -3734.354    -3239.798    -3734.354            0    9096.7259    16.958598    19.974988     20.68945    7008.5053     10101.11    8632.4959    8556.5724    993.81691   -1532.2427   -154.21569 
  235500    281.15141   -3732.3171   -3250.4332   -3732.3171            0    11518.374    16.915308    19.923999    20.636637    6954.9712    11046.293    9870.2735    13638.556   -2426.8283   -435.26515   -824.48384 
  236000    303.16698   -3741.8402   -3222.2224   -3741.8402            0    9428.6479    16.952725    19.968071    20.682285     7001.227    10983.121    9685.4523    7617.3701   -1088.9377   -1469.6488   -1598.7691 
  236500    290.80824    -3762.512   -3264.0766    -3762.512            0    10916.156    16.985285    20.006422    20.722008    7041.6444    11298.903    10621.751    10827.815    389.36001    529.96779    2032.1844 
  237000    291.79489   -3715.7436   -3215.6171   -3715.7436            0    9597.8219    16.991997    20.014329    20.730197    7049.9963     8307.719    10271.875    10213.872   -220.38962   -471.71622    4.9491919 
  237500    295.58425   -3757.4571   -3250.8358   -3757.4571            0    11996.372    16.946123    19.960294     20.67423      6993.05    12182.619    12158.002    11648.494   -494.26743    -1316.695   -870.74799 
  238000    302.48693   -3715.1406   -3196.6883   -3715.1406            0    10612.706    16.942972    19.956584    20.670387    6989.1506    9708.7031    10892.488    11236.926   -535.26128   -1173.5224    1613.5628 
  238500    291.78212   -3730.3877   -3230.2831   -3730.3877            0    9979.2262    16.988443    20.010142    20.725861    7045.5737     11321.56    10068.983    8547.1361   -535.71078   -867.19249    820.95753 
  239000    306.30026   -3748.0868   -3223.0986   -3748.0868            0    9888.1464    17.039042    20.069741    20.787592    7108.7155    10058.605    10485.685    9120.1487    2248.9276    1715.5932   -124.64824 
  239500    307.26442   -3710.4848   -3183.8441   -3710.4848            0    8283.5669    16.973006    19.991959    20.707027    7026.3837    6795.6389    9221.0234    8834.0385    727.32113    858.50291   -396.88324 
  240000    306.87047   -3744.5222   -3218.5567   -3744.5222            0    11156.177    16.925064    19.935489    20.648538    6967.0115    12165.378    11836.498    9466.6557   -360.71997    607.11763   -299.10757 
  240500    294.21278   -3728.5193   -3224.2487   -3728.5193            0    10310.837    16.930245    19.941592    20.654859    6973.4119    9813.3245    12063.955     9055.232    667.83956    1808.0617   -530.98175 
  241000    292.39096   -3749.0502   -3247.9021   -3749.0502            0    10545.623    16.855882    19.854002    20.564137    6881.9265    9677.8487    11342.681    10616.339   -636.09358    925.40132   -135.84983 
  241500     313.9904    -3729.464   -3191.2952    -3729.464            0    8360.9446    17.004157    20.028651    20.745032    7065.1426    7582.1934    9059.9671    8440.6733    550.42357   -590.24946    312.12053 
  242000    293.46852   -3717.2863   -3214.2913   -3717.2863            0    9454.1875    17.008011    20.033191    20.749734    7069.9478    5814.5645    10738.691    11809.307    1759.4595    86.447805    237.27714 
  242500     325.3626   -3718.2898   -3160.6295   -3718.2898            0    9988.9013    16.936149    19.948546    20.662062    6980.7098    8760.7102    11501.439    9704.5551    605.69356    69.404519    316.63612 
  243000    299.78053   -3691.6393   -3177.8258   -3691.6393            0    11217.368    16.914743    19.923333    20.635947     6954.274    8388.0098    12223.956    13040.138    824.15791   -109.13441   -596.69184 
  243500    300.97703   -3715.9141   -3200.0498   -3715.9141            0    10204.205    16.935691    19.948007    20.661504     6980.144    9904.3506    11724.862    8983.4016   -1750.4964    613.58876   -969.78706 
  244000    291.69236   -3700.6283   -3200.6776   -3700.6283            0    9409.9626    16.973417    19.992443    20.707529     7026.894    8248.1871    9591.9768    10389.724    838.81058   -444.68608   -666.19588 
  244500    291.18229   -3700.7075    -3201.631   -3700.7075            0    9489.4185    17.000601    20.024462    20.740693    7060.7104    9395.4662     9875.008    9197.7811   -61.443024   -890.45716    2008.3284 
  245000    309.83852   -3725.0567   -3194.0041   -3725.0567            0    9109.9161    16.934783    19.946937    20.660395    6979.0206    8330.2874    10532.982    8466.4787   -631.92196   -361.40495    165.63786 
  245500    292.31053   -3713.5217   -3212.5115   -3713.5217            0    10032.959    16.923068    19.933139    20.646104    6964.5478    10173.671    7633.4776    12291.728    368.81322    440.02764    453.10425 
  246000     296.1297   -3724.1452   -3216.5891   -3724.1452            0    8325.0801    16.974044    19.993182    20.708294    7027.6731    7029.5987    9088.6764    8856.9651   -155.30357    703.52168    1568.1221 
  246500    309.66016   -3741.4552   -3210.7083   -3741.4552            0    9886.4015     16.99459    20.017382     20.73336    7053.2236    11229.488    7190.1967     11239.52    292.92481    266.21891   -1399.0426 
  247000    304.63095    -3726.524    -3204.397    -3726.524            0    9912.5052    16.934289    19.946356    20.659793    6978.4105     7427.733    11568.159    10741.624    767.32557   -597.52096   -459.34762 
  247500    291.90116   -3689.5885   -3189.2799   -3689.5885            0     10504.42    16.977921    19.997748    20.713024    7032.4895    9624.2487    9812.3776    12076.634    271.44962    -193.5945    56.534065 
  248000    308.76977   -3711.1417   -3181.9209   -3711.1417            0    9680.7144    16.965052     19.98259    20.697324    7016.5104     10367.34    10600.478    8074.3252   -1872.3333   -806.54233    793.09132 
  248500    288.99236   -3768.4925   -3273.1695   -3768.4925            0     9666.868    16.912993    19.921271    20.633812    6952.1155    8634.2789    9850.1929    10516.132   -144.69755   -685.56315   -904.48554 
  249000    270.38196   -3711.7395   -3248.3141   -3711.7395            0    8927.5801    16.966643    19.984464    20.699265    7018.4845    7157.1096    11402.641    8222.9903   -864.12973    726.28796   -875.97419 
  249500    293.16461   -3704.1052   -3201.6311   -3704.1052            0    8594.9393    17.002372    20.026549    20.742854    7062.9176    8815.5636    6550.1279    10419.126    971.85401    163.20354    159.17791 
  250000    309.58885   -3701.5484   -3170.9237   -3701.5484            0    9454.5828    17.016992    20.043768     20.76069    7081.1526    9962.9533    9530.1206    8870.6746   -1279.1895    150.11461   -145.41479 
  250500    300.57707   -3708.6129   -3193.4341   -3708.6129            0    9874.6893    16.953885    19.969437      20.6837    7002.6641    11796.838    9042.6165    8784.6135   -90.914514    1031.9259     119.4554 
  251000    313.15509   -3693.2085   -3156.4714   -3693.2085            0    10521.208    16.949459    19.964223      20.6783    6997.1805    12923.065    8707.7424    9932.8158   -689.00457    1040.3858   -757.42751 
  251500    315.93445   -3757.3729   -3215.8721   -3757.3729            0    9297.4579    16.925981    19.936569    20.649657    6968.1438    8813.1103    9506.8358    9572.4275   -563.42227    399.60101    139.73997 
  252000    304.26007    -3754.245   -3232.7537    -3754.245            0    9497.1116     16.90993    19.917664    20.630075    6948.3396     9325.428    9020.2584    10145.649    603.91107    474.96759   -1357.5409 
  252500    301.13598   -3689.8259   -3173.6892   -3689.8259            0    12119.579    16.930267    19.941618    20.654886    6973.4392    9841.9293    12488.343    14028.465    728.02014    -3459.866    648.16594 
  253000    312.72136   -3718.1148   -3182.1211   -3718.1148            0    10746.237    16.910501    19.918336    20.630772    6949.0432    9812.1811    11994.068    10432.461   -211.70722   -206.43749    379.74241 
  253500    313.56115   -3704.7744   -3167.3413   -3704.7744            0    9971.1622    17.021671     20.04928    20.766398    7086.9951    9024.2937    9895.1556    10994.037    294.61852    515.77382    535.66855 
  254000    301.92297   -3713.1024   -3195.6168   -3713.1024            0    10069.924     16.94858    19.963189    20.677229     6996.093    9469.2535    10703.939    10036.581   -710.71518   -1157.7498    -365.7892 
  254500    311.71075   -3750.3999   -3216.1384   -3750.3999            0     11994.96    16.942752    19.956324    20.670118    6988.8776    12922.968    11012.424    12049.488   -546.45493   -857.69641   -664.38526 
  255000    299.67537   -3774.3452   -3260.7119   -3774.3452            0    8617.8916    16.991783    20.014076    20.729935    7049.7292    6718.5535    8967.4885    10167.633   -115.71061    1297.1864    30.979107 
  255500    293.44959   -3754.4857   -3251.5232   -3754.4857            0    9068.8164    17.009838    20.035342    20.751962    7072.2253    8867.1942    9730.0948    8609.1601    674.58003   -286.02817     496.3846 
  256000    307.40162   -3687.5346   -3160.6588   -3687.5346            0    10765.344      16.9402    19.953318    20.667004    6985.7198    11722.322    9925.8664    10647.843     572.7258    415.73477    204.04538 
  256500    299.43481   -3696.2693   -3183.0483   -3696.2693            0    7737.1799    17.089754    20.129473     20.84946    7172.3757    10770.507    5502.7507    6938.2821   -1178.2664     2631.426   -540.56355 
  257000    299.57967   -3726.2537   -3212.7844   -3726.2537            0    11641.323    16.950285    19.965196    20.679308    6998.2035    12871.346    9773.4683    12279.154    293.56254   -753.18453    555.71198 
  257500    285.53557   -3709.9642    -3220.566   -3709.9642            0    10213.896    16.983444    20.004253    20.719762    7039.3549    10352.679    10444.485    9844.5252   -1005.8209    -395.2127    122.80357 
  258000    296.65247   -3717.1637   -3208.7115   -3717.1637            0    11305.456    17.013976    20.040216    20.757011    7077.3882    10684.775    12489.612     10741.98   -1158.7004    1015.3783   -1676.1544 
  258500    310.19083   -3708.2539   -3176.5974   -3708.2539            0    11635.867    16.896419     19.90175    20.613591    6931.6973    10990.277    12549.969    11367.355   -1842.1571   -58.679823    21.848351 
  259000    305.85835    -3766.601   -3242.3702    -3766.601            0    11397.991    16.927129    19.937922    20.651058    6969.5622    12590.624     10517.02    11086.328    819.62654   -779.30767    1478.3766 
  259500    285.77253   -3707.2125   -3217.4082   -3707.2125            0    8836.7967     16.98197    20.002518    20.717964    7037.5231    8961.2095    9302.3957    8246.7848     971.6111    344.11884     491.7789 
  260000    307.91773   -3796.8541   -3269.0936   -3796.8541            0    9903.0459    17.016569     20.04327    20.760174    7080.6243    9929.2998    9643.1574     10136.68    669.52561   -349.40385    380.57156 
  260500    298.11479   -3717.5003   -3206.5417   -3717.5003            0    9318.7172    16.981587    20.002066    20.717496    7037.0461     7696.112    9818.6833    10441.356      1617.35    38.189973   -285.26657 
  261000    287.02096   -3749.0096   -3257.0655   -3749.0096            0    10146.783     16.94326    19.956923    20.670738     6989.507     8924.884    10242.984    11272.481   -1500.8327    2867.1031    416.54968 
  261500    308.69742   -3742.1126   -3213.0158   -3742.1126            0    11233.041    16.871994    19.872981    20.583794    6901.6804    9987.2426    9510.7839    14201.096    687.45289    604.18525    287.65004 
  262000    305.39574   -3747.5557   -3224.1179   -3747.5557            0    10189.927    16.958056     19.97435    20.688788    7007.8333     10288.68    9934.8538    10346.247   -491.16145    888.67353   -463.61467 
  262500    305.94138   -3733.1983   -3208.8253   -3733.1983            0    9592.4895    16.990193    20.012203    20.727996    7047.7505    7959.2318    8833.3481    11984.889    392.48156   -1551.3104    998.74335 
  263000    294.75216   -3703.9888   -3198.7937   -3703.9888            0    7899.9424    17.047616     20.07984    20.798052    7119.4517    8918.5378     9438.311    5342.9785    1160.8314    737.19146    444.82159 
  263500     299.7195   -3661.4914   -3147.7825   -3661.4914            0    11395.467    16.968127    19.986212    20.701076    7020.3267    12151.052    11518.788     10516.56   -596.65912    18.219687    1867.0224 
  264000    293.54307   -3710.8224   -3207.6996   -3710.8224            0    9712.2855     17.01842    20.045451    20.762433    7082.9356     9508.553    9682.2969    9946.0068   -64.972906   -812.74632   -853.18857 
  264500    281.74062   -3700.8978    -3218.004   -3700.8978            0    10871.654    16.931783    19.943404    20.656736    6975.3127    12072.374    11056.961    9485.6273    188.18362   -1888.5168   -499.23992 
  265000    296.82502   -3705.2377   -3196.4897   -3705.2377            0    10911.462     16.92907    19.940208    20.653425    6971.9597    8974.1449    12413.093    11347.147    825.39955   -132.05037   -120.72861 
  265500    289.96278   -3749.4086   -3252.4223   -3749.4086            0    8636.5453    16.938623     19.95146     20.66508    6983.7693    7075.4039    11318.341    7515.8909    438.34973   -78.835413    1446.2887 
  266000    283.73057   -3724.7789   -3238.4744   -3724.7789            0    8020.3453    16.946323     19.96053    20.674474    6993.2976    7122.2237    9783.7922    7155.0199   -355.22639    537.49557    125.84543 
  266500    313.12245   -3713.1511   -3176.4699   -3713.1511            0    10151.845    16.890589    19.894883    20.606479    6924.5245    11618.998    10012.928    8823.6106   -254.63438   -1263.3807    587.74607 
  267000    283.30534   -3725.8946   -3240.3189   -3725.8946            0    11124.186    16.874223    19.875606    20.586512    6904.4156    11394.485    8774.3888    13203.685    119.06559   -83.784213    -565.2057 
  267500    317.08763   -3733.6122   -3190.1348   -3733.6122            0    12092.999    16.866646    19.866681    20.577268    6895.1187    12942.058    13073.915    10263.025   -623.10903     555.2482    613.44017 
  268000    303.27995   -3725.4689   -3205.6575   -3725.4689            0    10369.591    16.929849    19.941126    20.654376    6972.9228    8868.0189    10916.248    11324.505    172.23176   -739.31379    1183.0374 
  268500    302.05184   -3754.9705    -3237.264   -3754.9705            0    11409.435    16.848888    19.845764    20.555603    6873.3631    9981.9917     11280.48    12965.832   -711.23436   -499.07991   -938.00939 
  269000    287.37736   -3722.5164   -3229.9615   -3722.5164            0    9268.3879    16.951145     19.96621    20.680358    6999.2695    8118.4396    8884.6391    10802.085    326.35237    63.566041    1759.1567 
  269500    312.51757   -3711.1153   -3175.4709   -3711.1153            0    10256.024    16.929367    19.940558    20.653788    6972.3269    13251.324     10617.66    6899.0888    219.26771    1124.6753    2518.5456 
  270000    310.91043   -3715.2127   -3182.3229   -3715.2127            0    10976.044    16.934691     19.94683    20.660284    6978.9076    10485.258    11038.378    11404.496    536.40536    531.76478      535.602 
  270500    299.16841    -3706.262   -3193.4976    -3706.262            0    13811.619    16.815515    19.806456    20.514889    6832.6018    12269.443    15610.619    13554.796    -188.3755   -414.06673   -1631.2655 
  271000    302.18442   -3736.8197    -3218.886   -3736.8197            0     9292.946    16.984694    20.005726    20.721287      7040.91    9242.8051    9629.5914    9006.4415   -579.57552    608.89614   -128.50906 
  271500    304.49666   -3723.5857   -3201.6888   -3723.5857            0    12771.393       16.912    19.920102      20.6326    6950.8911    11125.271    13622.145    13566.763    -708.9287    -1003.731   -985.09803 
  272000    315.19577   -3718.9402   -3178.7055   -3718.9402            0     9533.567    17.002444    20.026634    20.742942    7063.0076    10722.051    11483.151    6395.4993   -380.93783    1039.0368    343.49542 
  272500    303.09035   -3688.0153   -3168.5288   -3688.0153            0    9302.9784    17.037018    20.067357    20.785122     7106.182     6907.662     10994.49    10006.784    764.50962   -188.44095   -1793.8087 
  273000    291.16194   -3704.0893   -3205.0477   -3704.0893            0     10405.87    17.007599    20.032705    20.749231    7069.4335    11359.054    11059.163     8799.393    1374.7122    -98.97001    457.50032 
  273500    291.78898   -3695.2553   -3195.1389   -3695.2553            0    12133.652    16.906236    19.913313    20.625568    6943.7864    13080.955    12162.269    11157.732   -1350.3426    250.26876    -421.7793 
  274000    321.63417   -3721.5298   -3170.2599   -3721.5298            0    9256.3545    16.980254    20.000496     20.71587    7035.3892    7510.8622    11662.578     8595.623    230.45593    1033.3095   -1583.4694 
  274500    305.18889   -3709.1317   -3186.0483   -3709.1317            0    11037.696    17.067308    20.103034    20.822076    7144.1514    11925.598    11056.931    10130.559    1314.7602    1913.9299      1577.91 
  275000    297.92479   -3710.4805   -3199.8476   -3710.4805            0    10537.288    16.961736    19.978684    20.693278    7012.3968    8352.6495    13172.063     10087.15   -158.60091   -1819.8064   -976.27062 
  275500    273.93888   -3710.8705   -3241.3486   -3710.8705            0    11744.975    16.960431    19.977147    20.691686    7010.7782    13562.756    12688.263    8983.9074    1605.1511   -427.66702    842.56086 
  276000    309.35169   -3711.4662    -3181.248   -3711.4662            0    12154.066    16.950302    19.965217    20.679329    6998.2256    12522.617     11309.15    12630.432    573.67657    1275.7206     614.1855 
  276500    305.13785   -3731.5692   -3208.5734   -3731.5692            0    7656.8309     17.04405     20.07564    20.793702    7114.9855     6447.509    9697.6729    6825.3109   -1027.4224    2774.2224   -741.95592 
  277000    301.39467   -3686.5868   -3170.0066   -3686.5868            0     11537.32    16.936324    19.948752    20.662276    6980.9261    10916.475    13147.977    10547.508    102.41626    77.978497   -376.32725 
  277500    302.89806   -3717.5116   -3198.3547   -3717.5116            0    8654.4032    17.071895    20.108437    20.827672    7149.9136    11437.551    7467.7544    7057.9043   -952.39451    1333.8942    61.359258 
  278000    306.96343    -3730.946   -3204.8212    -3730.946            0    9322.1041    16.984256     20.00521    20.720752    7040.3646    8522.7074    9863.0794    9580.5255   -1135.8148    1528.1463   -1514.2349 
  278500    302.97172   -3713.4355   -3194.1524   -3713.4355            0    11086.996    16.906697    19.913856    20.626131    6944.3552    11948.398    11802.948    9509.6417    1174.5264    820.44999    501.28409 
  279000    303.98579   -3749.8065   -3228.7852   -3749.8065            0    10277.589    16.905273    19.912179    20.624394    6942.6008    10365.263    10534.131    9933.3726   -241.76765   -100.21502   -70.007979 
  279500    296.47429   -3712.6354   -3204.4887   -3712.6354            0    12100.256    16.953547    19.969039    20.683287    7002.2447     11315.23    13791.165    11194.373     690.7055     1327.105   -1608.1082 
  280000      299.256   -3729.5626   -3216.6481   -3729.5626            0    11192.634    16.962542    19.979634    20.694262    7013.3966    12201.223    9911.4687    11465.209    121.82245     352.2225       1260.9 
  280500    302.68816   -3742.7712    -3223.974   -3742.7712            0     9280.984    16.968323    19.986443    20.701314    7020.5696    9005.7571    9789.7381    9047.4568   -1111.1994   -726.71941   -98.966865 
  281000     307.8078   -3733.7606   -3206.1885   -3733.7606            0    10380.014    16.968413    19.986549    20.701424    7020.6813    10244.263    10323.104    10572.675   -667.73717    667.67034   -262.20444 
  281500    302.62557   -3742.7496   -3224.0598   -3742.7496            0    8718.9186    16.981351    20.001788    20.717208    7036.7529    8659.3781    9127.0837     8370.294   -970.73402    818.27702   -372.16145 
  282000    290.77403   -3682.5637    -3184.187   -3682.5637            0    11520.048      16.8998    19.905732    20.617716    6935.8591    13134.977    10152.836    11272.332    624.63985    535.57321   -1163.7444 
  282500    308.19058   -3721.2372   -3193.0091   -3721.2372            0     10395.74    16.968312     19.98643    20.701301     7020.556    10529.387    10066.791    10591.042    475.17196    948.20777    1843.0236 
  283000    290.39083   -3763.9565   -3266.2366   -3763.9565            0    10698.351    16.949646    19.964445    20.678529    6997.4131    8815.7297    13243.024      10036.3    992.66963   -113.62397   -576.26862 
  283500    304.97638   -3771.3004   -3248.5813   -3771.3004            0    10602.566    16.973761    19.992848    20.707948    7027.3211    10639.409    10155.822    11012.467    1086.2832   -1993.7179    513.09071 
  284000    298.50254   -3778.9535   -3267.3303   -3778.9535            0    7895.4802    17.043439     20.07492    20.792956    7114.2202    9671.0961    7329.5949    6685.7496    89.575161     266.3077    1640.8856 
  284500     316.0336   -3685.5121   -3143.8413   -3685.5121            0    9308.2114    17.013858    20.040077    20.756867    7077.2408    7932.5182    10374.392    9617.7241   -368.43287    1746.9202    856.69223 
  285000    306.96552   -3746.1339   -3220.0055   -3746.1339            0    9951.1115     16.96629    19.984048    20.698834    7018.0464    9529.4587    10161.352    10162.524   -695.64202   -1110.3828   -2561.7448 
  285500    313.56268   -3724.8812   -3187.4455   -3724.8812            0    11408.625    16.920706    19.930357    20.643222    6961.6317    10472.583    11282.865    12470.427   -522.85255   -141.12658   -664.07323 
  286000    286.56224     -3766.79   -3275.6321     -3766.79            0    10802.107    16.867556    19.867753    20.578379    6896.2356    8572.2358    12241.677    11592.409    1367.3672    729.32599    -2402.859 
  286500    309.90694    -3754.873   -3223.7031    -3754.873            0    8990.0367    16.965648    19.983292    20.698051    7017.2499     9695.939    8999.7828    8274.3884   -45.993573   -673.76033   -1430.7675 
  287000    297.47251   -3750.9168   -3241.0591   -3750.9168            0    11121.131    16.878365    19.880485    20.591566    6909.5015    10616.774    11885.809     10860.81    356.78896    485.40813   -39.835447 
  287500    301.53843   -3682.3866   -3165.5601   -3682.3866            0    11344.226    16.874234    19.875619    20.586526    6904.4298    11597.208    11936.798    10498.674   -1372.4654   -175.96752   -1149.1484 
  288000    277.19385   -3777.1682   -3302.0674   -3777.1682            0    9111.8387    16.907067    19.914292    20.626583    6944.8111    9234.2467    11320.751     6780.518   -1214.9236    1869.0796    431.96372 
  288500    293.42162   -3747.3687   -3244.4541   -3747.3687            0    9033.0444    16.911934    19.920024     20.63252    6950.8098    9274.3899    9444.9981    8379.7452   -647.21761     636.6741   -641.81754 
  289000    299.00426   -3681.5606   -3169.0776   -3681.5606            0    9492.0466    17.010085    20.035633    20.752264    7072.5335     10090.34    9956.9153    8428.8847    355.25024   -1408.9047   -1260.7981 
  289500     304.0215   -3726.8147   -3205.7322   -3726.8147            0    9292.7688    16.939029    19.951939    20.665576    6984.2719    8127.6388     9718.314    10032.354   -385.95264   -1573.9533   -2004.3422 
  290000    310.74763   -3713.2552   -3180.6444   -3713.2552            0    9494.5389     16.93318     19.94505     20.65844    6977.0395    11597.195    8979.5289     7906.893   -158.25389   -1209.2894   -1374.7893 
  290500    291.61084   -3728.4776   -3228.6666   -3728.4776            0    8827.3592    16.985417    20.006577    20.722169    7041.8084    8537.6535    7178.6446    10765.779   -160.64006   -321.90569   -318.20024 
  291000    302.75696   -3698.4769   -3179.5618   -3698.4769            0    9281.3769     17.03185     20.06127    20.778818    7099.7178    9425.9756    8964.0946    9454.0606    1371.7839   -222.29214    464.04249 
  291500    290.84667   -3687.9474   -3189.4462   -3687.9474            0    9854.8832    16.984355    20.005327    20.720874    7040.4882    10364.851    9181.3867    10018.412     405.1497    706.65357    674.45873 
  292000    315.13216    -3745.525   -3205.3993    -3745.525            0    9594.2062    16.926349    19.937003    20.650106    6968.5989    8225.0357      12531.9    8025.6828    37.800134   -638.57921    877.48054 
  292500    302.59218   -3718.9078   -3200.2752   -3718.9078            0    12100.517    16.902609    19.909041    20.621143    6939.3185    13058.116    11853.154    11390.283    1233.9799   -1120.5554   -1210.5676 
  293000    276.02213   -3742.2649   -3269.1724   -3742.2649            0    11391.262    16.933783    19.945759    20.659176    6977.7844    10637.519    11330.869    12205.399   -1044.4038    1839.5201    574.58697 
  293500    311.59554   -3719.2041     -3185.14   -3719.2041            0     9093.605    16.981972     20.00252    20.717966    7037.5248     6279.327    10692.003    10309.485     727.5015    342.55035     251.1068 
  294000    307.24786   -3777.5958   -3250.9835   -3777.5958            0    7804.7674     17.02879    20.057666    20.775085    7095.8919    9174.9255    8761.0303    5478.3464     413.2831   -324.91128    295.85404 
  294500    292.92649   -3681.5358   -3179.4698   -3681.5358            0    11465.073    16.832461    19.826416    20.535563    6853.2794    9653.5026    12209.468    12532.249    1469.5008    550.62663     69.70662 
  295000    296.03926   -3698.4502    -3191.049   -3698.4502            0    9389.6871     16.94342     19.95711    20.670933    6989.7043    9773.8359     9282.052    9113.1735    788.76666    1225.8786   -984.73858 
  295500    296.96465   -3697.5237   -3188.5364   -3697.5237            0    9834.9826    16.949108    19.963811    20.677872    6996.7466    11619.293    7788.1876    10097.468   -465.22777    294.99051    1774.5811 
  296000    312.22607   -3772.6193   -3237.4745   -3772.6193            0    9058.0231    16.984407    20.005388    20.720937    7040.5531    8839.6277    8574.4916    9759.9499    1356.3964   -545.19568    331.49773 
  296500    295.39466    -3729.458   -3223.1617    -3729.458            0    10745.969     16.92557    19.936086    20.649156     6967.637    10750.295    9640.3106    11847.303     1552.746    935.03635   -1339.7424 
  297000    318.99326   -3757.4631   -3210.7196   -3757.4631            0    10011.915    16.962724    19.979848    20.694483    7013.6221    9511.9344    11325.267    9198.5448    263.56887    665.03882    231.79488 
  297500    315.19386   -3732.1599   -3191.9284   -3732.1599            0    10087.751    16.981165     20.00157    20.716982    7036.5221    9686.3563     7965.197      12611.7    321.56442    747.80085   -1047.5945 
  298000    305.53663   -3750.5229   -3226.8436   -3750.5229            0    11381.381    16.938729    19.951585     20.66521    6983.9007      12830.8    11551.271    9762.0733   -509.53709    342.60088    359.10631 
  298500     315.9069   -3783.1782   -3241.7246   -3783.1782            0    10345.652    16.967989     19.98605    20.700907     7020.155    8907.6547    11002.124    11127.177    635.66798    522.08123   -366.43225 
  299000    297.48577   -3752.4907   -3242.6102   -3752.4907            0    7966.2167    16.983496    20.004315    20.719826    7039.4201    8284.2136    7634.1713    7980.2652    1731.1448   -2142.1168   -935.74721 
  299500    303.01985     -3766.37   -3247.0043     -3766.37            0    9242.0408    16.950846    19.965858    20.679992    6998.8989    9997.1517    9426.1217     8302.849    -650.9561   -1364.0825    500.39776 
  300000    307.52886   -3776.9896   -3249.8957   -3776.9896            0    10768.208    16.963462    19.980718    20.695385    7014.5383    10138.336     10142.37    12023.919   -526.76151   -91.341197    484.11308 
  300500    291.86285     -3775.69    -3275.447     -3775.69            0    7844.0703    16.999048    20.022633    20.738799    7058.7755    7621.6495    8004.0261    7906.5354    1270.3774   -686.82922    2012.4003 
  301000    304.18503   -3758.8258   -3237.4631   -3758.8258            0    11430.437    16.911938     19.92003    20.632525    6950.8154    10901.639    12267.751     11121.92   -1234.7017    77.853592    389.03175 
  301500    302.96193   -3727.6744    -3208.408   -3727.6744            0    10799.723    16.932337    19.944056    20.657411    6975.9967    9041.6322     13218.43    10139.106    113.65308    1310.2129     31.06565 
  302000    307.83645   -3758.8303   -3231.2092   -3758.8303            0    10039.623    16.942539    19.956073    20.669858    6988.6141    9270.6286    10767.283    10080.957    1087.7837    1326.5125    446.19729 
  302500    293.97478   -3758.4581   -3254.5954   -3758.4581            0    8669.8555    17.039189    20.069915    20.787771    7108.8997     8307.152    7785.2362    9917.1785   -2084.5336   -913.38344   -1457.9516 
  303000    302.41247   -3715.3979   -3197.0732   -3715.3979            0     10151.82    16.938032    19.950764    20.664359    6983.0379    11662.249    9505.1307    9288.0813    336.71241   -1974.8736   -286.62878 
  303500    309.51123   -3746.5789   -3216.0873   -3746.5789            0    7364.5576    16.982087    20.002655    20.718106    7037.6674    7182.2913      9137.61    5773.7716   -1602.6316   -1305.5561   -474.52686 
  304000     290.6954   -3722.4426   -3224.2006   -3722.4426            0    9525.8527    16.885085    19.888399    20.599764    6917.7571    9592.5162    9502.4701    9482.5717    1354.9298    520.94795    1143.6928 
  304500    291.85465   -3663.6235   -3163.3946   -3663.6235            0    10211.893    16.977568    19.997333    20.712593    7032.0512    10104.152    9956.4358     10575.09    1559.2897    290.60374   -1335.0344 
  305000    297.14726   -3685.4386   -3176.1384   -3685.4386            0    7298.9229    17.021211    20.048739    20.765838    7086.4217    6425.5742    8216.3524    7254.8422    401.08756    655.87178    168.51916 
  305500    315.47893   -3715.8174   -3175.0973   -3715.8174            0    10298.707    16.936697    19.949192    20.662731    6981.3872    11681.654     8255.839    10958.629   -85.902625   -379.22048   -736.15827 
  306000    298.93506   -3717.4044     -3205.04   -3717.4044            0    9656.2149    16.964356    19.981771    20.696475    7015.6475      9393.49     9228.638    10346.517    1073.3883   -564.69616   -273.30492 
  306500    296.19105   -3708.9817   -3201.3204   -3708.9817            0    11093.992    16.929066    19.940204    20.653421    6971.9553    11701.549    11642.956    9937.4698   -522.35061   -630.72971   -375.07059 
  307000    303.60588   -3715.2562   -3194.8861   -3715.2562            0    11210.351    16.939551    19.952554    20.666213    6984.9174    10840.011    11173.366    11617.676   -1911.4027   -313.17072    264.29409 
  307500    307.67222   -3749.6138   -3222.2741   -3749.6138            0    8890.9453    16.951906    19.967106    20.681286    7000.2118    9708.9976    7521.3112    9442.5272    840.12393    1317.0479   -36.394641 
  308000    292.15338   -3703.5814   -3202.8405   -3703.5814            0    8976.3329    16.991119    20.013294    20.729125    7048.9027    9985.0986    7178.2337    9765.6665    847.30393    1731.3223   -110.47577 
  308500     312.1085   -3704.1579   -3169.2146   -3704.1579            0     11034.42    16.904794    19.911614    20.623809    6942.0095    13253.575     9791.723    10057.961    -129.8393    3365.4166    923.33538 
  309000    304.47183   -3729.6004   -3207.7461   -3729.6004            0    9548.6174    16.938999    19.951904     20.66554    6984.2349    9275.1647    10520.055    8850.6326    2121.0065   -1761.8941   -1744.1047 
  309500    292.82018   -3721.2518    -3219.368   -3721.2518            0    9987.4443    16.980776    20.001112    20.716508    7036.0387    9893.7113    10186.301    9882.3204   -401.83558    111.87224    177.87075 
  310000    314.54978   -3722.3134   -3183.1858   -3722.3134            0    12104.252    16.919866    19.929367    20.642197    6960.5942    14484.395    10295.099    11533.262   -1414.8688    409.19694    461.49673 
  310500    325.06265   -3696.5679   -3139.4216   -3696.5679            0    9068.1217    16.984373    20.005348    20.720896    7040.5108    9204.5198    10229.766    7770.0793   -2416.4084   -217.55373   -1160.9686 
  311000    306.44482   -3731.4212   -3206.1852   -3731.4212            0    9732.2698    16.955982    19.971907    20.686258    7005.2626    10447.987    10119.355     8629.467   -541.08268    1579.3899    59.604393 
  311500    301.23091   -3740.8239   -3224.5244   -3740.8239            0    7603.2814    16.992532    20.014959     20.73085    7050.6623    7170.1925     7765.647    7874.0048   -179.59884    1136.6306   -1149.5628 
  312000    300.31501   -3712.4473   -3197.7176   -3712.4473            0      10848.4    16.962742     19.97987    20.694506    7013.6449    11603.357    9235.2703    11706.573   -484.60722    1268.6265    1939.6076 
  312500    292.03154   -3746.6217   -3246.0896   -3746.6217            0    10929.653    16.977741    19.997536    20.712804    7032.2659     11007.88    8710.5119    13070.566   -843.25331    138.65756   -467.91486 
  313000     292.6964   -3709.5383   -3207.8667   -3709.5383            0    10907.333    16.937544     19.95019    20.663764    6982.4352    11186.195    11050.785    10485.018      249.854   -1024.3804    1043.9001 
  313500    300.42285   -3731.7691   -3216.8546   -3731.7691            0    10299.895    16.989389    20.011256    20.727014    7046.7496    10176.453    11074.979    9648.2525    1003.4736   -624.62104     837.7132 
  314000    305.09198   -3695.1084   -3172.1912   -3695.1084            0    10192.843    16.980409    20.000679     20.71606    7035.5823    9898.3103    10824.471    9855.7482    336.02107   -797.95982   -1716.3818 
  314500    309.20947   -3709.7317   -3179.7573   -3709.7317            0    9976.8567    17.005235    20.029921    20.746347    7066.4859    10223.881    9172.1808    10534.508   -477.69924   -565.09715   -663.12815 
  315000    298.85899   -3693.0659   -3180.8318   -3693.0659            0    11701.701    16.923406    19.933537    20.646516    6964.9646    11693.193    11298.198    12113.713   -828.82063   -1084.2077    244.95341 
  315500    309.55869   -3689.0676   -3158.4946   -3689.0676            0    10586.828    16.906803    19.913981     20.62626    6944.4856    12353.907     8159.063    11247.515    762.44445   -40.358233     1409.983 
  316000    312.94741    -3709.629   -3173.2479    -3709.629            0    9650.7718    16.981007    20.001384    20.716789    7036.3258    11631.913    5967.8627     11352.54    1284.9711   -2387.3374   -672.07997 
  316500     290.5181   -3680.0788   -3182.1407   -3680.0788            0    11785.771    16.883384    19.886396    20.597689    6915.6671    11018.972      13744.5    10593.842    967.61636    565.59179   -1312.1032 
  317000    298.82561    -3757.273   -3245.0961    -3757.273            0    10484.357    16.942463    19.955983    20.669765      6988.52    7676.0602    11752.327    12024.682    32.681134     428.3288    544.99832 
  317500      286.374   -3771.7026   -3280.8674   -3771.7026            0    9922.4128    16.917705    19.926822    20.639561    6957.9281    7557.9116    10961.481    11247.846   -928.31909   -127.30227    187.54872 
  318000    305.47223   -3743.6858   -3220.1169   -3743.6858            0    8748.2566     16.95633    19.972317    20.686683    7005.6946     9391.508    9143.1215    7710.1401     1322.817    1005.2507   -552.80201 
  318500    286.51276   -3727.8244   -3236.7513   -3727.8244            0    10367.375    17.038506     20.06911    20.786938    7108.0443    11137.547    9258.1502    10706.428    -236.0078    -844.3198   -379.45013 
  319000    309.15657   -3715.3475   -3185.4638   -3715.3475            0    9427.1242    16.947962     19.96246    20.676474     6995.327    9808.9193    9602.4916    8869.9616   -153.27247    -467.5478   -1107.1133 
  319500    289.40323   -3684.2367   -3188.2095   -3684.2367            0    12291.976    16.953337    19.968791    20.683031    7001.9845    10761.979    13194.069    12919.881    429.95363    409.40265   -544.67706 
  320000    298.15304   -3728.0324   -3217.0083   -3728.0324            0    11255.944    16.900178    19.906177    20.618177    6936.3244    13964.887    11764.959    8037.9851   -829.01774   -93.091605   -1908.7682 
  320500    292.52166   -3710.4792    -3209.107   -3710.4792            0    11242.229    16.913351    19.921694    20.634249    6952.5578    10466.722     12210.81    11049.156    433.99794    1044.5652    851.39425 
  321000    282.34862   -3767.3443   -3283.4084   -3767.3443            0    7901.3871    17.034331    20.064192    20.781844    7102.8205    8782.8803    6007.8465    8913.4346   -1427.6919   -1616.9857    426.81073 
  321500    281.03423   -3720.3337   -3238.6507   -3720.3337            0    11195.404    16.936149    19.948547    20.662062    6980.7101    11135.158    12842.018    9609.0353    1033.8419   -1506.6634     -1638.71 
  322000    314.70375   -3745.8824   -3206.4909   -3745.8824            0    11169.918    17.006985    20.031982    20.748482     7068.668    11389.714    11134.346    10985.694   -1612.3679    289.76772    51.100374 
  322500    286.91319   -3730.7213   -3238.9619   -3730.7213            0    7655.8671    16.994701    20.017513    20.733495    7053.3616    7560.7128    8934.0444    6472.8441   -319.98131    55.667436    760.91516 
  323000    303.89229   -3709.3956   -3188.5346   -3709.3956            0    10552.982    16.981864    20.002393    20.717835     7037.391    9549.9559    12482.955    9626.0369    938.79922   -1055.8689    272.54743 
  323500    306.95886   -3754.2066   -3228.0896   -3754.2066            0    6509.1344    17.020736    20.048179    20.765258     7085.828    6753.1998     8435.542    4338.6612   -1517.1802    -350.1584   -164.14027 
  324000    293.21558   -3755.8772   -3253.3157   -3755.8772            0    9982.1487    16.921994    19.931874    20.644793    6963.2215    11222.525    9836.5652    8887.3561    -1473.626    595.99197    392.87044 
  324500    296.65419   -3697.7153   -3189.2601   -3697.7153            0    10516.852    16.940541     19.95372    20.667421    6986.1426    10981.182    8570.1233     11999.25   -16.118009   -81.596539    1341.7065 
  325000    301.46525    -3726.192   -3209.4909    -3726.192            0    9038.5319    17.010307    20.035895    20.752535    7072.8115    9252.7113    7815.1334    10047.751    1045.6062   -568.67126   -1539.2401 
  325500    295.47958   -3718.6564   -3212.2145   -3718.6564            0    9432.2936    17.021631    20.049233     20.76635    7086.9458    10467.678     9462.225    8366.9779   -401.37884    326.20474   -895.08654 
  326000    294.43658    -3746.287   -3241.6328    -3746.287            0    10720.652    16.980743    20.001072    20.716466    7035.9968    12200.945     11660.52      8300.49    324.49483    429.12857     -316.594 
  326500      306.897   -3768.6016   -3242.5906   -3768.6016            0    9206.6142    17.023432    20.051354    20.768547    7089.1953    7560.1948     9527.541    10532.107    575.12219   -217.43008    -1092.731 
  327000    304.39729   -3738.6607   -3216.9341   -3738.6607            0    7560.0454    17.069675    20.105822    20.824963    7147.1239    7776.4528     6494.664    8409.0195     1436.695   -841.77468   -136.77761 
  327500    280.08273   -3731.4465   -3251.3943   -3731.4465            0      10101.7    16.958636    19.975034    20.689497    7008.5532    11327.016    8876.2571    10101.828   -307.55383   -393.71282   -2109.0879 
  328000    293.21211   -3710.4954   -3207.9399   -3710.4954            0    9447.2535    17.008613    20.033899    20.750468    7070.6979    8843.4805    10190.321    9307.9588   -874.35437    1614.7683   -148.88809 
  328500    315.31823   -3729.5893   -3189.1446   -3729.5893            0    9440.1364    16.940619    19.953812    20.667516     6986.239    7830.7031    10707.846    9781.8603    45.909641    1217.7668    1549.7156 
  329000    293.81328   -3721.6208   -3218.0349   -3721.6208            0    9975.4215    16.967969    19.986027    20.700883    7020.1307    10391.161    8469.1051    11065.999    1986.0534   -133.20318    683.54147 
  329500    290.54793    -3760.059   -3262.0698    -3760.059            0    9191.2549    16.974217    19.993386    20.708505    7027.8882    8280.5999    9124.6868    10168.478    -615.3379   -213.34116   -466.13706 
  330000    297.75509   -3743.0204   -3232.6784   -3743.0204            0    11091.996    16.964593    19.982049    20.696763    7015.9406    11453.889    10894.402    10927.697   0.65766145   -279.58024    885.70045 
  330500    308.51764   -3752.8105   -3224.0218   -3752.8105            0    10277.267    16.959925    19.976552    20.691069    7010.1515    10464.656    10513.873    9853.2709    646.49791    1325.6082   -500.39839 
  331000    305.43313   -3755.4114   -3231.9095   -3755.4114            0    10114.018    16.895216    19.900332    20.612124    6930.2166    9579.3502    12280.248    8482.4543   -20.579639   -583.24697    1999.4816 
  331500    299.34377    -3734.618    -3221.553    -3734.618            0    10061.027    16.989434    20.011309    20.727069    7046.8056    8088.4303    12821.528    9273.1239    407.78417    555.05787    780.74253 
  332000    302.35962   -3700.0732   -3181.8392   -3700.0732            0     10181.37     16.97872    19.998689    20.713998    7033.4825    10653.495    7081.1022    12809.514    439.41392   -1274.2168    557.12304 
  332500     314.1093   -3701.1863   -3162.8137   -3701.1863            0    10211.162    16.995308    20.018228    20.734236    7054.1182    10073.463    10039.962    10520.062    1116.2343   -1018.6871   -19.507412 
  333000    294.68789   -3707.9791   -3202.8942   -3707.9791            0    12023.442    16.938994    19.951898    20.665534    6984.2289    11229.895    12270.876    12569.555    1366.3348    310.89161   -1369.6153 
  333500    303.00234     -3699.36   -3180.0243     -3699.36            0    9725.2352    17.054058    20.087428    20.805911    7127.5257    11428.734    7485.9912     10260.98   -907.48376   -1349.4967    2143.4904 
  334000     290.8717    -3688.454   -3189.9099    -3688.454            0     10714.45    17.031566    20.060935    20.778471    7099.3625    9505.6901    11412.572    11225.088    256.18347    163.41923   -89.168429 
  334500    301.43359   -3726.5636   -3209.9167   -3726.5636            0    8789.0123    17.050137     20.08281    20.801128     7122.611    10296.099    8004.3546    8066.5834   -1131.4658   -415.98325   -1086.3307 
  335000    289.58508    -3723.896   -3227.5571    -3723.896            0    8777.1506    16.958301    19.974639    20.689088     7008.138    8877.5379    7854.4818     9599.432    529.54084   -1589.1547    783.85264 
  335500    310.47086   -3667.2527   -3135.1162   -3667.2527            0    12189.587    16.887583    19.891342    20.602812    6920.8284      10928.1    12812.018    12828.643    309.95217    534.56328    2116.5459 
  336000    306.01619   -3673.5157   -3149.0144   -3673.5157            0     9351.605    17.008168    20.033376    20.749926    7070.1437    8778.7991    12691.578    6584.4376   -589.80233     298.4326    1281.6725 
  336500    292.58365   -3711.5573   -3210.0789   -3711.5573            0    9541.5524    16.928264    19.939259    20.652443    6970.9644     10918.75    10428.882    7277.0247    134.22531   -25.455955    1023.4513 
  337000    310.92175    -3718.416   -3185.5068    -3718.416            0    10563.806    16.957386    19.973561    20.687971    7007.0028    10894.409    10560.349    10236.662   -3143.7045    619.00627    445.73075 
  337500    287.13437   -3670.6657   -3178.5272   -3670.6657            0    12253.052    16.930307    19.941665    20.654935    6973.4881      13826.8    12374.253    10558.104    447.32791    1148.4516    776.56992 
  338000    281.58965   -3747.6082   -3264.9732   -3747.6082            0     9454.797     16.92217    19.932081    20.645007    6963.4382    9415.0237    9626.2716    9323.0957   -49.726183    446.30424    412.73651 
  338500    305.96031   -3761.0835    -3236.678   -3761.0835            0     10269.48    16.923575    19.933736    20.646722    6965.1733    9873.1001    13204.427    7730.9137    950.39391   -455.87657   -237.47589 
  339000    297.65718   -3732.1792    -3222.005   -3732.1792            0    9312.1841    16.952051    19.967277    20.681462    7000.3914    7380.3414    8840.5893    11715.622   -1170.4742   -949.26529   -375.49264 
  339500    295.63899   -3772.5348   -3265.8197   -3772.5348            0    9575.0839    16.958496    19.974868    20.689325    7008.3787     9394.192    10000.725    9330.3344    57.702719   -295.27049    909.51305 
  340000    303.43578   -3722.9113   -3202.8327   -3722.9113            0     8999.416     16.96463    19.982093    20.696809    7015.9867    8220.0509    9993.0634    8785.1336   -1216.2059   -1103.8164    2108.5399 
  340500    294.55712   -3696.0848    -3191.224   -3696.0848            0    8981.1155    16.950064    19.964937    20.679039    6997.9307    10645.968    8518.3579    7779.0208    371.54213    -876.5103    847.96111 
  341000    287.11146   -3699.2411   -3207.1419   -3699.2411            0     8889.279      16.9338     19.94578    20.659197    6977.8061    9769.4539    8407.2361    8491.1471   -1118.4286    227.57148   -542.14059 
  341500    299.05284   -3738.9933    -3226.427   -3738.9933            0    9701.4799    16.926789    19.937522    20.650643    6969.1426    12406.762    7189.2297    9508.4486   -181.57683    765.29263   -1088.3263 
  342000     296.1697    -3732.287   -3224.6623    -3732.287            0    8407.2148    16.913109    19.921408    20.633953    6952.2588    8483.9006     9582.613    7155.1309    124.12166    599.64553   -580.14356 
  342500    289.63077    -3736.704   -3240.2867    -3736.704            0    10965.285    16.904937    19.911783    20.623984    6942.1866     12147.98    9676.9267    11070.948   -594.66978    2874.3265     1202.003 
  343000    293.82494   -3736.1045   -3232.4986   -3736.1045            0    11029.234    16.867151    19.867276    20.577885    6895.7392    10155.337    12438.635     10493.73   -344.74403    2498.0017    2359.4437 
  343500    292.70678   -3737.0924    -3235.403   -3737.0924            0    9464.0975    16.935033    19.947232    20.660701    6979.3302     8799.959    10734.539    8857.7941   -2212.8145   -272.89686   -871.96643 
  344000    304.26776   -3748.8156   -3227.3111   -3748.8156            0    8174.7939    16.940175    19.953288    20.666974    6985.6892    9332.4111    8224.6666    6967.3039   -679.74274    923.59603   -571.82169 
  344500    294.96761    -3762.646   -3257.0816    -3762.646            0     9597.513    16.952446    19.967742    20.681945    7000.8811    9421.1952    9534.8415    9836.5023    1194.7931    146.03812    490.48496 
  345000    304.94995   -3756.3691   -3233.6953   -3756.3691            0    9491.7172    16.965673    19.983322    20.698081    7017.2809    9510.7679    8596.2612    10368.122   -1050.0901    994.02705    779.01671 
  345500    290.37183   -3729.8465   -3232.1592   -3729.8465            0    9744.4944    17.000577    20.024434    20.740664    7060.6802    11572.242    9730.1369    7931.1043     584.7393    179.36776    1936.0875 
  346000    291.01716   -3725.1575    -3226.364   -3725.1575            0    10701.582    16.984165    20.005103    20.720642    7040.2517    8962.9225    10503.964     12637.86    31.954363    960.57255    367.54573 
  346500    293.31694   -3750.1463   -3247.4111   -3750.1463            0    9319.7154    16.962838    19.979983    20.694623    7013.7642    10113.796    8886.3863    8958.9642    1378.0742    1198.4702    293.26759 
  347000    300.71814   -3720.7694   -3205.3488   -3720.7694            0    9431.7986    16.968411    19.986547    20.701422     7020.679    8489.3137    8698.2049    11107.877   -1529.9119   -2473.4516    1028.4864 
  347500    296.19646   -3717.4372   -3209.7666   -3717.4372            0    9053.6801    16.946285    19.960485    20.674428    6993.2508    9182.0226    9045.0789    8933.9388    355.44402   -281.18128    1626.9938 
  348000    292.93299   -3766.4779   -3264.4008   -3766.4779            0    7936.7649    16.944105    19.957917    20.671768    6990.5521    7281.8385    8930.2478    7598.2085    563.44829    983.44184   -351.80495 
  348500    285.46725   -3748.4995   -3259.2184   -3748.4995            0    9249.3098     16.99846    20.021941    20.738082    7058.0437    9369.1176    8693.0498     9685.762    1141.4828   -75.998216    461.24185 
  349000    278.03915   -3767.9163   -3291.3667   -3767.9163            0    8289.9107      16.9997    20.023401    20.739594    7059.5881    8660.3147    6603.1469    9606.2704   -1138.9337   -88.622326   -858.40165 
  349500    303.55088   -3686.8768    -3166.601   -3686.8768            0    10669.896    16.986892    20.008315    20.723969    7043.6437    9534.8937    11047.758    11427.036     734.4849   -223.92025   -935.43321 
  350000    309.74129   -3732.8635   -3201.9775   -3732.8635            0    10833.262    17.059461    20.093792    20.812503    7134.3028     9521.467    12194.024    10784.296   -114.40063    1129.9494   -179.15086 
  350500    318.50281   -3727.4707   -3181.5678   -3727.4707            0     11121.04    16.983749    20.004613    20.720134    7039.7344    10676.318    10694.399    11992.403    227.17733    501.45896   -76.748266 
  351000    291.39357   -3681.2696    -3181.831   -3681.2696            0    10831.305    16.943801    19.957559    20.671398     6990.176    10804.482    10004.661    11684.772    1359.5841   -156.94144    1147.9064 
  351500    308.27486   -3715.5121   -3187.1395   -3715.5121            0    9624.2803    16.954681    19.970375    20.684672    7003.6509    10968.473    5926.2438    11978.124   -469.04176    761.42346    1946.3238 
  352000    315.56797   -3726.2768   -3185.4041   -3726.2768            0    8944.6256    17.033464    20.063171    20.780787    7101.7363    7200.2192    8081.2917    11552.366    -266.8104    474.05951    281.95395 
  352500    291.14047   -3732.0948     -3233.09   -3732.0948            0    11211.951    16.914079     19.92255    20.635136    6953.4546    11045.061    10206.747    12384.044   -79.168191    1442.5227    1485.4763 
  353000    285.70486   -3742.4171   -3252.7288   -3742.4171            0    8126.4764    17.044051     20.07564    20.793702    7114.9858    7657.8344    7809.1049    8912.4899    923.95804   -698.85084   -1090.9501 
  353500    301.26995    -3761.873   -3245.5066    -3761.873            0    11760.252     16.92975    19.941009    20.654255    6972.7997    12027.629    12067.961    11185.165   -781.88369    987.17021    710.97655 
  354000    291.78686   -3710.8317    -3210.719   -3710.8317            0    11106.083    16.941714    19.955102    20.668852    6987.5937    9813.2749    12473.436    11031.538    488.47166    525.84787    1410.5387 
  354500    297.90853   -3680.6221   -3170.0171   -3680.6221            0    11420.443    17.010114    20.035667    20.752299    7072.5699    11602.085    9783.8532     12875.39   -957.25587    42.258323    595.60055 
  355000    289.81165   -3700.3776   -3203.6504   -3700.3776            0    11611.862     16.90322     19.90976    20.621889    6940.0711    12753.221    10674.343    11408.022   -963.13718    2030.4222   -903.66427 
  355500    293.52788   -3732.7459   -3229.6491   -3732.7459            0    10323.437    16.952514    19.967823    20.682028    7000.9659    7975.7868    10701.623    12292.901   -190.70692    580.97512    205.45237 
  356000    310.01172   -3747.5115    -3216.162   -3747.5115            0    9354.3287    16.939328     19.95229     20.66594    6984.6411    8111.6151    9906.6268    10044.744    357.02192   -498.40869    197.61581 
  356500    291.23736   -3729.4749    -3230.304   -3729.4749            0    8893.3836    16.961313    19.978186    20.692762    7011.8722    7874.7166    9152.9951    9652.4392   -74.613798     2375.049     2481.896 
  357000    294.92621   -3710.7735   -3205.2801   -3710.7735            0    8774.0298    17.055615    20.089262    20.807811    7129.4784    8938.4881    7682.2227    9701.3784    161.19756   -999.62281    621.38993 
  357500    305.28448   -3681.0733   -3157.8262   -3681.0733            0    10743.062    16.965238    19.982809    20.697551    7016.7412     10477.77    12237.904    9513.5141    997.48071   -70.716589    1329.8718 
  358000    311.31191   -3736.4955   -3202.9175   -3736.4955            0    9388.6272    16.941173    19.954464    20.668191    6986.9235    10515.937    9588.4977    8061.4467    562.54693    664.25152    379.37604 
  358500    310.39449   -3718.9038   -3186.8983   -3718.9038            0    9905.2863    16.957431    19.973613    20.688026    7007.0584    10758.901    8652.9627    10303.995   -67.851202   -983.18523    332.20129 
  359000    307.96935   -3731.9821   -3204.1332   -3731.9821            0    9437.5456    16.972484    19.991344     20.70639    7025.7353    7181.1646     10513.23    10618.243    118.01729    655.46599    130.57527 
  359500    299.44517   -3710.6784   -3197.4396   -3710.6784            0    8097.2206    17.056544    20.090356    20.808944    7130.6433    6733.9137    7146.1663    10411.582    1576.1382    102.32384   -687.17081 
  360000    285.22294   -3715.2065   -3226.3442   -3715.2065            0    8144.6642    16.992707    20.015164    20.731063    7050.8795    6281.5755    8983.6059    9168.8113    446.04576    1551.4394    1289.1781 
  360500    294.38689   -3721.7971    -3217.228   -3721.7971            0    9422.4744    16.986537    20.007897    20.723535    7043.2017    8409.4848    9458.1614    10399.777    904.99615    2.6820863     1471.815 
  361000    299.12739   -3726.8964   -3214.2023   -3726.8964            0    8432.5544     17.00836    20.033601    20.750159    7070.3823    8686.9884    8284.1095    8326.5652   -1798.1309    1103.2719   -748.97213 
  361500    306.89157   -3724.2887    -3198.287   -3724.2887            0    11056.977    16.901422    19.907643    20.619696     6937.857    9215.2031    11526.612    12429.116   -1763.5819    2704.7109   -1504.9487 
  362000    300.91116   -3736.7819   -3221.0305   -3736.7819            0    9321.2356    16.976615    19.996211    20.711431    7030.8676    8007.7458    10181.535    9774.4262   -509.53544    219.88628   -1859.8784 
  362500     315.0834   -3715.8236   -3175.7815   -3715.8236            0    9899.7265    16.916047    19.924869    20.637538    6955.8827    11788.258    9986.4981    7924.4234   -779.13529    129.33343   -947.77183 
  363000    314.23496   -3717.8726   -3179.2847   -3717.8726            0    10594.663    16.950337    19.965258    20.679372    6998.2689    9991.3789    11329.817    10462.793   -894.29463    571.74751    214.40283 
  363500    297.64162    -3683.901   -3173.7534    -3683.901            0    8467.5171    17.016311    20.042966    20.759859    7080.3024    6218.3162     10182.08    9002.1549    867.62518    610.06455   -804.40946 
  364000    305.91756   -3707.8835   -3183.5513   -3707.8835            0    11994.729    16.931678     19.94328    20.656607    6975.1823    10615.401    11686.602    13682.185   -796.16177    682.63552    401.22051 
  364500    283.34154   -3759.3986   -3273.7609   -3759.3986            0    10561.408    16.974877    19.994163     20.70931     7028.708    11247.944    9333.7496    11102.532    480.42917   -339.68725     190.0392 
  365000     307.1197   -3746.5389   -3220.1462   -3746.5389            0    13115.328    16.919046    19.928401    20.641196    6959.5823    11754.267    13927.358    13664.359    1731.1431    1338.5877   -1382.9107 
  365500    295.70996   -3733.4517   -3226.6149   -3733.4517            0     11081.93    16.967738    19.985754      20.7006    7019.8431    11609.274    11377.391    10259.125   -268.88704    1418.2081    2766.8276 
  366000    305.57523   -3727.6129   -3203.8674   -3727.6129            0    9662.1746    16.947831    19.962306    20.676314    6995.1645    11146.858    8937.3995    8902.2661   -733.89667   -392.04547    169.50512 
  366500    296.60791   -3750.7543   -3242.3785   -3750.7543            0    9685.9278     16.95509    19.970857    20.685171    7004.1576    9846.0043    9374.6946    9837.0844      1291.42   -1309.0662    700.02755 
  367000    295.07805     -3746.15   -3240.3964     -3746.15            0    9483.0603    16.948531    19.963131    20.677168    6996.0316    8578.5679    9842.8804    10027.733    540.44426   -199.44649   -525.63421 
  367500    304.45721   -3733.7801   -3211.9509   -3733.7801            0     10477.29    16.898228     19.90388    20.615799     6933.924     10456.78    8747.3921    12227.696   -807.21164    854.82396   -14.843676 
  368000    303.09184   -3716.2006   -3196.7115   -3716.2006            0    11069.692    16.951487    19.966613    20.680775    6999.6936    12362.938    9779.0007    11067.139   -229.15787   -487.34577    962.53731 
  368500    316.57903   -3750.9013   -3208.2957   -3750.9013            0    8335.1751    16.936295    19.948719    20.662241    6980.8906    8369.6192    9068.8542     7567.052     2059.953   -241.72775   -423.24315 
  369000    300.07337   -3721.8878   -3207.5723   -3721.8878            0    9670.6557    16.967981     19.98604    20.700897    7020.1453    10724.569    8619.4906    9667.9078   -638.73808   -40.426172    640.33672 
  369500    303.53997   -3733.4264   -3213.1693   -3733.4264            0    9805.1306    16.947955    19.962452    20.676465     6995.318    12044.029    8934.1325    8437.2302   -383.05164   -369.71407    -1392.023 
  370000    289.32763   -3694.1757   -3198.2781   -3694.1757            0     10055.32    16.979932    20.000117    20.715477    7034.9892    11413.529    10288.724    8463.7063    1339.3612   -1830.1528    94.318472 
  370500     306.9848   -3763.5623   -3237.4009   -3763.5623            0    10354.152    16.862616    19.861934    20.572352    6890.1775    10901.223    9190.2593    10970.974   -1658.8946    157.37975   -1394.8254 
  371000    295.58776   -3733.5862   -3226.9589   -3733.5862            0    9987.5361    16.975101    19.994427    20.709583     7028.986    9054.1742    10942.404    9966.0304    -1625.901   -910.92138   -1035.1329 
  371500    301.39974   -3740.3253   -3223.7365   -3740.3253            0    9068.0291    16.998472    20.021955    20.738096    7058.0582    9393.7855    8095.9435    9714.3583    391.46829    14.255131   -784.47884 
  372000    293.52119   -3740.7979   -3237.7126   -3740.7979            0    12671.615    16.957533    19.973734    20.688151    7007.1857    11502.342     13206.84    13305.663   -1009.7867    71.571574    609.08346 
  372500    296.32214   -3772.5221   -3264.6361   -3772.5221            0    9694.2932    16.939694    19.952722    20.666387     6985.094    10550.008    9188.8968    9343.9742    679.61019   -1725.7303   -181.19713 
  373000    278.82648   -3775.8699   -3297.9708   -3775.8699            0      9974.92    16.919259    19.928652    20.641456    6959.8456    10514.179     10908.03    8502.5509    838.41813    65.465554   -564.38635 
  373500    312.45914   -3787.9522    -3252.408   -3787.9522            0    8245.4254    16.924132    19.934392    20.647402    6965.8615    8415.8086    7499.7818    8820.6858   -1714.3443    1385.2397    317.98172 
  374000    314.67991   -3704.7899   -3165.4393   -3704.7899            0    11319.667    16.883781    19.886864    20.598173    6916.1548     10774.02    11508.349    11676.632    -1618.014    2050.0764    2275.1395 
  374500     331.5444   -3680.1383   -3111.8825   -3680.1383            0    11091.435    16.866168    19.866118    20.576686    6894.5331    9453.5906    12011.875    11808.838   -249.74488   -595.90929   -1623.3606 
  375000    321.47928   -3692.8058   -3141.8013   -3692.8058            0    11544.162    16.905535    19.912487    20.624713    6942.9229    9459.7276    12564.166    12608.593    989.31042   -1666.7128   -192.55086 
  375500    316.74635   -3740.0527   -3197.1603   -3740.0527            0     10751.49    16.974013    19.993145    20.708256    7027.6342    10550.544    12325.961     9377.966   -242.85046   -1493.1203    13.618096 
  376000    311.49336     -3717.96   -3184.0711     -3717.96            0    9557.8903     16.93603    19.948406    20.661917    6980.5622    8183.4974    9509.0295    10981.144    816.87376     143.5845   -996.82248 
  376500    302.92678   -3698.1344   -3178.9282   -3698.1344            0    9660.8008    17.000743     20.02463    20.740867     7060.888    8547.8287    9703.9657    10730.608    608.39868   -940.02046   -626.17321 
  377000    282.35718    -3740.398   -3256.4474    -3740.398            0    9735.2179    16.931514    19.943087    20.656408    6974.9802    10024.394    10595.136    8586.1236   -659.61879   -48.038085   -1512.2746 
  377500     296.4953   -3740.1107   -3231.9279   -3740.1107            0    9964.9064    16.910815    19.918707    20.631155    6949.4308    8821.7564    12798.425    8274.5375    751.76767    239.57099     548.0195 
  378000     300.7539   -3738.2441   -3222.7622   -3738.2441            0    10741.103     16.99023    20.012247    20.728041    7047.7971    10107.526    9279.3757    12836.409    1518.9112   -1389.1158   -1239.1085 
  378500    300.14781    -3736.344   -3221.9009    -3736.344            0    9579.4384    16.999564    20.023241    20.739428    7059.4186    11269.394    9529.1524    7939.7687   -792.51433   -2183.1173   -2298.2238 
  379000    298.93422   -3726.1298   -3213.7668   -3726.1298            0    8917.6292    16.945396    19.959438    20.673344    6992.1503    9691.2773    7538.4266    9523.1836    164.55068    429.87898   -1209.4763 
  379500    288.40104   -3739.6773   -3245.3678   -3739.6773            0    7659.7321    16.963405     19.98065    20.695314    7014.4667     6941.324    8080.7609    7957.1114     774.2424   -1019.2544    1707.0557 
  380000    286.68503   -3747.5626   -3256.1943   -3747.5626            0    9594.4509    16.907861    19.915227    20.627551    6945.7896    9073.4732    10986.183    8723.6961   -1296.9607    286.32124    1137.2259 
  380500    311.55089    -3718.137   -3184.1495    -3718.137            0    10458.856    16.891826    19.896339    20.607988    6926.0458    11474.132    10033.865    9868.5723   -1917.4855    690.76588   -1328.3595 
  381000    299.37457   -3737.8131   -3224.6953   -3737.8131            0    8325.1644    16.992918    20.015413     20.73132    7051.1421    8197.3183    7958.2116    8819.9632    394.09818    346.17225   -1246.5577 
  381500    302.56504   -3694.0501    -3175.464   -3694.0501            0    9501.4025     16.98689    20.008313    20.723966    7043.6409     9588.422    8230.0357     10685.75    695.00326    311.40074   -320.77778 
  382000    307.40531   -3776.5604   -3249.6782   -3776.5604            0    8639.9322    16.979888    20.000066    20.715424    7034.9349    10048.407    6413.4657    9457.9239    1127.5772    827.00573    -1460.455 
  382500    301.74842   -3728.8854   -3211.6989   -3728.8854            0    11158.845    16.937234    19.949824    20.663386    6982.0514    8744.2962    11678.063    13054.176    591.86563   -163.67541    1962.7172 
  383000    306.47581   -3713.3742   -3188.0851   -3713.3742            0    10386.683    16.961655    19.978589    20.693179     7012.296    9775.9049    8851.2133    12532.932    209.37051   -381.49107   -296.25824 
  383500    318.36166   -3707.1122   -3161.4512   -3707.1122            0    9868.7221    16.871257    19.872112    20.582894    6900.7756     10599.43    11174.624    7832.1126    1993.3806     461.7378    2496.8617 
  384000    288.90052   -3721.6507   -3226.4851   -3721.6507            0    10512.979    16.913878    19.922314    20.634892    6953.2073    10494.766     10849.11    10195.059   -312.67749   -697.31317   -655.13276 
  384500     319.8322   -3752.4887   -3204.3073   -3752.4887            0    13056.694    16.915364    19.924064    20.636704    6955.0399    13152.926    12568.287     13448.87   -1760.1327   -1118.4386   -1695.3673 
  385000    301.08387   -3706.7248   -3190.6773   -3706.7248            0    9242.0827    16.965107    19.982655    20.697391    7016.5787    10766.752    7212.2255    9747.2703    1253.6913   -457.36241    39.090428 
  385500    304.91957   -3714.8348   -3192.2131   -3714.8348            0    9959.6581    17.009366    20.034786    20.751386    7071.6368    10298.553    11263.284    8317.1378   -1168.7853   -173.60188   -520.08715 
  386000    305.05961   -3737.3665   -3214.5047   -3737.3665            0    10566.072    16.950782    19.965783    20.679915    6998.8201    11795.324    8875.2249    11027.666   -353.86838   -524.44044    517.73836 
  386500    282.44604   -3694.9413   -3210.8384   -3694.9413            0    9452.4332    16.997558    20.020878    20.736981    7056.9195    8896.4834    9201.5817    10259.234    1476.2321   -1821.2002    745.45303 
  387000    299.59496   -3721.5138   -3208.0182   -3721.5138            0    9676.8734      16.9637    19.980998    20.695674    7014.8328    9955.5787    10067.116    9007.9252   -954.69304   -2396.3249    1053.5902 
  387500    301.68773   -3724.2758   -3207.1934   -3724.2758            0     7578.397    17.004051    20.028526    20.744902      7065.01    7878.4972    7063.6288    7793.0649    587.78204    1441.2801     448.3511 
  388000    298.80976   -3759.3682   -3247.2184   -3759.3682            0    10830.674    16.943457    19.957154    20.670977    6989.7498    11122.913     10486.84    10882.268   -51.433182    1089.4297   -775.66321 
  388500    285.13272   -3764.7521   -3276.0444   -3764.7521            0    9834.7114    17.004701    20.029291    20.745695    7065.8198    8043.7454    13439.726    8020.6633   -737.48458    252.91648    227.78238 
  389000    312.61686   -3748.7677   -3212.9531   -3748.7677            0    9194.1989    16.964611    19.982071    20.696786    7015.9637    9971.5956    8674.0531     8936.948     793.8584    573.65562    2562.9106 
  389500    302.84665   -3718.1593   -3199.0905   -3718.1593            0    11533.734    16.932745    19.944537    20.657909    6976.5011    8996.1465    13004.974    12600.082     145.8273   -964.69375   -1133.5189 
  390000      288.512   -3751.6209   -3257.1212   -3751.6209            0    11997.819      16.8443    19.840361    20.550007    6867.7503    11294.544    14087.971    10610.942    745.81202   -1004.6826   -1238.8982 
  390500    301.49475   -3711.9409   -3195.1892   -3711.9409            0    10164.291    17.001349    20.025343    20.741606    7061.6426    9581.3727     10403.41    10508.092    49.360275    1301.4378    1097.3114 
  391000    286.14864   -3730.0767   -3239.6277   -3730.0767            0    10835.406    17.009326    20.034739    20.751338    7071.5868    10425.647    11108.003    10972.569    271.57559   -1196.0687   -487.71146 
  391500    308.76401   -3750.8253   -3221.6144   -3750.8253            0    8030.7629    17.047732    20.079977    20.798194    7119.5977    9695.2689    8243.8144    6153.2053    254.85474    1257.9765    995.85619 
  392000    288.51591   -3791.0292   -3296.5228   -3791.0292            0    10995.421     16.89858    19.904296    20.616229    6934.3581    9954.0105    11321.038    11711.213   -329.28997   -522.91304    1341.0946 
  392500    308.87174    -3754.611   -3225.2154    -3754.611            0     9283.805    16.962361     19.97942     20.69404    7013.1715    10708.612    8915.2847    8227.5185    299.29626   -290.81394    1317.1085 
  393000    305.23729   -3710.4077   -3187.2414   -3710.4077            0    11413.119    16.913005    19.921286    20.633827     6952.131    12544.931    10246.539    11447.887   -491.95585   -280.39206    1255.2302 
  393500    301.20843    -3704.849    -3188.588    -3704.849            0    10707.037    16.964356    19.981771    20.696475    7015.6469    13257.287    11111.389     7752.435    1324.8173   -1996.9088    -361.2108 
  394000    276.97181   -3722.1695   -3247.4493   -3722.1695            0    9515.6517    16.946988    19.961314    20.675286    6994.1215    8743.7799    9643.4405    10159.735    742.29289   -1111.0326   -1060.1082 
  394500    308.29855    -3777.287   -3248.8739    -3777.287            0    8820.9531    16.993012    20.015523    20.731435    7051.2592    7732.2597    8533.0317    10197.568    849.64709   -656.88758    676.29248 
  395000    293.92242   -3770.6467   -3266.8737   -3770.6467            0    9727.7844     16.98112    20.001516    20.716927    7036.4659    12304.285    7038.7076    9840.3607   -273.62605    1659.7322     508.7773 
  395500    281.24782    -3760.484   -3278.4349    -3760.484            0    9889.0048    16.961351    19.978231    20.692809    7011.9197     9599.396    9716.8804    10350.738    532.83844    315.74489    539.33623 
  396000     296.0703   -3778.9929   -3271.5386   -3778.9929            0    9321.6748    16.994771    20.017596    20.733581    7053.4493     8824.265    8539.4875    10601.272   -663.49888    15.647736    701.55427 
  396500    294.09792    -3738.639   -3234.5653    -3738.639            0    9157.2266    16.911601    19.919632    20.632114    6950.3997    8385.7722    9784.5339    9301.3737    518.28913    1348.4111   -370.56547 
  397000     277.3327   -3759.7494   -3284.4107   -3759.7494            0    7762.0302    17.033413     20.06311    20.780724    7101.6716    10739.066    6353.9979    6193.0265    551.50309    1617.5549   -87.815843 
  397500    316.23011   -3778.9896    -3236.982   -3778.9896            0    7797.0931    16.969519    19.987852    20.702773     7022.054    9564.0838    7495.9227    6331.2728   -208.29868   -1128.9152    712.30137 
  398000    291.25556   -3738.3623   -3239.1603   -3738.3623            0     11708.59    16.954246    19.969863    20.684141    7003.1119    12408.776    10346.714    12370.281     3333.893    484.49655    519.42715 
  398500    306.85824   -3723.7659   -3197.8213   -3723.7659            0    10003.803    17.005296    20.029992    20.746421    7066.5616    12383.389    9282.1539    8345.8675    995.81052    1471.8826   -1961.0841 
  399000    289.15271   -3785.5623   -3289.9645   -3785.5623            0    10717.122    17.008802    20.034122    20.750699     7070.934    10574.236    11082.084    10495.045   -2243.3394    528.98497   -715.76346 
  399500    304.75895   -3775.1534    -3252.807   -3775.1534            0    8693.5812    16.971112    19.989728    20.704717    7024.0321     7909.515    9245.7462    8925.4825    32.988084   -3057.2445   -1129.5969 
  400000    291.39189   -3696.7292   -3197.2934   -3696.7292            0    9679.6292    17.017965    20.044914    20.761877    7082.3672    9640.7098    10202.316    9195.8619     217.8988   -893.10204    158.07908 
  400500    302.62948   -3678.8708   -3160.1742   -3678.8708            0    8637.8089    17.018481    20.045523    20.762507    7083.0123    9084.6201    8310.9448    8517.8619    -213.9029    907.09059    358.60343 
  401000    305.30504   -3734.7818   -3211.4994   -3734.7818            0    11138.235    16.934825    19.946986    20.660446    6979.0722    7610.5561    15228.602    10575.547   -414.41776   -373.57913    376.90765 
  401500    283.13086   -3673.5028   -3188.2261   -3673.5028            0    10738.242    17.006525     20.03144    20.747921    7068.0943    12311.765    10060.497    9842.4628    1190.7544   -626.56448    1063.3993 
  402000    310.17345   -3745.0733   -3213.4466   -3745.0733            0     11434.96     16.98048    20.000763    20.716146    7035.6706    10870.612     12138.91    11295.358   -798.55201    1644.5243   -929.63252 
  402500    292.61458   -3709.3853   -3207.8539   -3709.3853            0     9553.681     17.01012    20.035675    20.752307    7072.5781    11836.006    7033.2195    9791.8172    1169.9536   -45.901812     374.5718 
  403000    296.65859   -3739.7685   -3231.3058   -3739.7685            0     11280.59    17.008589    20.033872    20.750439    7070.6686    10615.006    11573.523    11653.241   -563.88088   -1163.6413    161.65955 
  403500    304.50116   -3757.2306   -3235.3261   -3757.2306            0    9755.7958    16.923145     19.93323    20.646198    6964.6429    8992.4373    10986.312     9288.638    1425.8301    -75.95115    914.32307 
  404000    285.68826   -3761.8496   -3272.1897   -3761.8496            0    8783.5483     16.97926    19.999325    20.714657    7034.1535    9061.3062    7879.8182    9409.5204    87.861098   -858.57324     52.36703 
  404500    304.69532   -3768.9763    -3246.739   -3768.9763            0    9130.2704    16.978944    19.998953    20.714272    7033.7613    7166.2937    10728.196    9496.3218    957.20538   -840.41197    147.14494 
  405000    299.43217   -3745.3108   -3232.0943   -3745.3108            0    9085.0838    17.012621    20.038621    20.755358    7075.6979     11084.87    9300.4773    6869.9044    970.21664   -349.98974   -1178.5811 
  405500    305.76819   -3735.3204   -3211.2442   -3735.3204            0    9498.1716    17.078745    20.116505    20.836029     7158.523    9621.0708    10019.543    8853.9003    248.04347   -548.95109    645.15398 
  406000    310.21078   -3730.4436   -3198.7529   -3730.4436            0    11439.442     16.97899    19.999007    20.714328     7033.818    11841.326    10984.124    11492.877   -602.55003   -1761.2037    -1797.725 
  406500    304.86904   -3726.9755   -3204.4404   -3726.9755            0    10995.479    16.963298    19.980525    20.695185    7014.3349    10322.225    11151.376    11512.835   -1370.3849    674.23043   -955.02281 
  407000    289.90118   -3732.5321   -3235.6514   -3732.5321            0    12839.969    16.835862    19.830421    20.539712    6857.4341    13182.263    11992.723    13344.921   -541.41236   -878.31459   -969.97485 
  407500    301.12496    -3737.691   -3221.5731    -3737.691            0    9297.9872    16.908605    19.916104    20.628459    6946.7066    7356.1095    8871.6364    11666.216   -1633.9268   -14.451983    1838.0965 
  408000    305.12736   -3766.8208    -3243.843   -3766.8208            0    10876.401    16.886707     19.89031    20.601743    6919.7512    9793.7285    11506.172    11329.304   -543.01211    1259.7451   -1280.0724 
  408500    294.87715   -3730.4735   -3225.0641   -3730.4735            0    11306.739    16.862667    19.861994    20.572414    6890.2406    14370.698     9750.754     9798.766    355.35603   -643.93908   -104.23983 
  409000    302.87525    -3708.719   -3189.6012    -3708.719            0    11538.659    16.895398    19.900547    20.612346    6930.4411    11956.901    12311.839    10347.237   -314.77228    783.82251   -534.17708 
  409500    289.35898   -3704.3802   -3208.4289   -3704.3802            0    8549.3408    16.971048    19.989653    20.704639    7023.9524      9342.62    6133.7506    10171.652   -1688.0806   -937.88864    1929.7624 
  410000    296.68474   -3707.2223   -3198.7148   -3707.2223            0    10393.458    16.897043    19.902485    20.614353    6932.4654    11595.595    8498.6936    11086.087   -337.01691   -677.31273    512.13304 
  410500    291.96531   -3725.2179   -3224.7994   -3725.2179            0    10911.434     16.92752    19.938382    20.651535     6970.045    11041.386    11730.494    9962.4219   -1677.3319   -2869.4638    946.62654 
  411000    303.34696   -3692.9707   -3173.0444   -3692.9707            0    10551.145    16.971998    19.990771    20.705798    7025.1319    9445.4952    9835.7898     12372.15    1589.8811    3014.6849    864.29205 
  411500     307.6416   -3726.4295   -3199.1424   -3726.4295            0    9195.8656     16.87578     19.87744    20.588413    6906.3277    9275.7164    9341.0463     8970.834    2140.5985    737.25421    24.860491 
  412000    296.55991   -3696.8946    -3188.601   -3696.8946            0    8226.7242     16.97976    19.999914    20.715267     7034.775    9786.9579    5604.9172    9288.2976   -1483.0647   -536.10571   -959.21641 
  412500    304.44406    -3724.534   -3202.7273    -3724.534            0    9850.8199    16.953809    19.969348    20.683608      7002.57    9771.9222    11837.663    7942.8747      2068.47    1038.2365    1801.5657 
  413000    290.80577   -3758.4015   -3259.9703   -3758.4015            0    10548.415    16.906037    19.913078    20.625325     6943.541    11898.967    9616.0983    10130.181     339.5134      784.473    -1404.544 
  413500    301.67849   -3763.2887    -3246.222   -3763.2887            0    8627.1298    16.989945    20.011911    20.727693    7047.4419    8967.9267    9404.0885    7509.3742    1269.3347   -279.53573   -966.91398 
  414000    287.89696   -3746.9131   -3253.4676   -3746.9131            0     8522.826    16.953463     19.96894    20.683185    7002.1406    10389.284    6431.6693     8747.525    1202.7513   -382.38225    1303.5465 
  414500     282.6008   -3728.1226   -3243.7545   -3728.1226            0    10747.016    16.932253    19.943958    20.657309    6975.8937    9079.8976     12011.38    11149.769    444.49538   -1564.6216    -488.7794 
  415000    295.54889   -3757.3882   -3250.8275   -3757.3882            0    8935.2291    16.953674    19.969189    20.683443     7002.403    8013.0084    9443.8935    9348.7855    107.04222   -201.86149    -744.2463 
  415500    299.61697    -3748.071   -3234.5378    -3748.071            0    11134.655    16.939026    19.951935    20.665572    6984.2675    10291.336    11035.563    12077.065   -669.02366   -373.71386    1159.9545 
  416000    305.64275   -3733.7271   -3209.8659   -3733.7271            0    9970.3619    16.974416    19.993619    20.708747    7028.1349    9816.0502    8765.9453     11329.09    -794.1094    811.57416     143.3768 
  416500    297.01444   -3728.2679   -3219.1953   -3728.2679            0    9512.1714    16.996722    20.019893    20.735961    7055.8784    8418.2354    9437.3941    10680.885   -173.03969   -1324.0129   -349.85301 
  417000    288.42941   -3720.8221    -3226.464   -3720.8221            0    11049.622     16.92257    19.932552    20.645495    6963.9318    8748.8542    13133.205    11266.806   -429.29256    1096.2425   -887.58183 
  417500    312.81822   -3705.4946   -3169.3349   -3705.4946            0    9938.7041    16.976821    19.996453    20.711682    7031.1234    11907.193     8876.416    9032.5033   -1746.6103    72.068906   -173.62383 
  418000     292.1652   -3716.4644   -3215.7033   -3716.4644            0    9247.4404    16.934215    19.946268    20.659702    6978.3183    9497.6167    8749.5548    9495.1497   -618.11545    1354.0287    848.49761 
  418500    317.36939   -3707.1686   -3163.2084   -3707.1686            0    11274.683    16.911886    19.919968    20.632461    6950.7507     10490.97    11661.221    11671.858   -637.53949   -2780.9102     76.34196 
  419000     289.3416   -3728.2469   -3232.3253   -3728.2469            0    7674.8167    16.962982    19.980152    20.694798     7013.942    9214.2307    5968.9742    7841.2453    1424.5149    370.52515   -428.74864 
  419500    314.55802   -3725.7327    -3186.591   -3725.7327            0    10022.724    16.907671    19.915003    20.627319    6945.5549     10418.22     11639.22    8010.7326    56.410288    556.06669    76.245341 
  420000    303.78628   -3732.3458   -3211.6665   -3732.3458            0    10470.054     16.86589    19.865791    20.576347    6894.1925    10915.667    9881.3348    10613.161   -62.262732    264.31737   -1372.0047 
  420500    306.07096   -3721.6155   -3197.0203   -3721.6155            0    10636.242    16.889183    19.893227    20.604764    6922.7955    9395.8088    10568.632    11944.285    125.97869    1737.4488    858.97728 
  421000    303.72639   -3677.7566     -3157.18   -3677.7566            0    8278.9426    16.963988    19.981337    20.696026    7015.1906    9563.0202    7926.5783    7347.2293   -593.71934    713.93809     177.7423 
  421500    309.23856   -3706.9309   -3176.9066   -3706.9309            0    11329.072    16.880428    19.882914    20.594082    6912.0348    11588.435    13003.598    9395.1835   -989.37309   -1182.0154   -115.22462 
  422000    294.58351   -3719.4295   -3214.5234   -3719.4295            0    9279.8033    16.932819    19.944624       20.658    6976.5933    9549.8597    10653.718    7635.8317   -1466.7182   -77.465691   -1841.0105 
  422500    291.81207   -3734.9118   -3234.7559   -3734.9118            0    8740.6564    16.944323    19.958174    20.672034    6990.8217     8744.338    10045.621    7432.0096   -420.15621   -702.37267    274.20632 
  423000    299.58596   -3717.4627   -3203.9827   -3717.4627            0    10097.962    16.962164    19.979189    20.693801    7012.9279    10689.699    10893.388    8710.7998   -441.97209   -278.65194   -408.42836 
  423500     297.7384   -3743.8209   -3233.5075   -3743.8209            0    8363.0149    17.028764    20.057635    20.775053    7095.8592     8752.297    10641.222    5695.5262    238.71923    -9.988477    871.44963 
  424000    289.04252   -3740.2255   -3244.8165   -3740.2255            0    10648.871    16.943243    19.956903    20.670717    6989.4859    12092.629    9650.4345    10203.551   -1516.5633   -825.96924    931.25042 
  424500    305.03924   -3724.3052   -3201.4784   -3724.3052            0    12517.861     16.97646    19.996028    20.711242    7030.6747     11675.59    14265.487    11612.505   -1891.9958   -1338.2791    163.28282 
  425000    313.23018   -3706.8425   -3169.9767   -3706.8425            0    11667.581    16.974666    19.993914    20.709053    7028.4457    12091.798    12087.984    10822.962   -1109.2229     413.3053   -907.51841 
  425500    286.30309   -3720.5421   -3229.8284   -3720.5421            0    9669.9355    16.979893    20.000071     20.71543     7034.941    10189.852    10996.396    7823.5584   -940.82217    2598.6266    726.71782 
  426000    314.90914   -3733.4686   -3193.7251   -3733.4686            0    10852.775    16.962379    19.979442    20.694063    7013.1944    12780.408    10972.893     8805.023    878.03165   -104.13761   -659.52551 
  426500    294.04648   -3720.2506    -3216.265   -3720.2506            0    9994.4738    16.945871    19.959997    20.673923    6992.7379    9094.5287    11699.597    9189.2956    1404.8293    -1833.784    562.20685 
  427000    283.74288    -3713.884   -3227.5584    -3713.884            0    10369.632    16.936719    19.949217    20.662757    6981.4142    10812.154    8557.3811     11739.36    377.46282    133.20478   -1478.5327 
  427500    316.70795   -3715.4639   -3172.6373   -3715.4639            0    11635.192    16.960364    19.977068    20.691604    7010.6949    8707.4845    12431.752    13766.339    1358.9462    585.98096    317.90368 
  428000    295.72454    -3676.583   -3169.7212    -3676.583            0    10374.116    16.988258    20.009924    20.725635     7045.343    9160.5656    11267.108    10694.675   -1267.1047    1997.6775    328.38728 
  428500     313.6222   -3685.6948   -3148.1571   -3685.6948            0    9781.2329    16.955609    19.971468    20.685804    7004.8011    9403.9099    9896.7005    10043.088     55.90186     421.9835   -207.90672 
  429000     305.5342   -3705.6029   -3181.9278   -3705.6029            0    12011.724    16.896729    19.902115     20.61397    6932.0793    12361.463    12303.431    11370.279   -14.389934    170.00893   -361.88973 
  429500     307.8411   -3729.9454   -3202.3163   -3729.9454            0    8460.9947    16.977135    19.996823    20.712066    7031.5137    7603.9767    8469.3406    9309.6669   -1441.4955    1052.2032   -1914.8692 
  430000    282.36545   -3735.2053   -3251.2406   -3735.2053            0    9214.6345    16.932703    19.944487    20.657858    6976.4492    9387.2893    9231.9807    9024.6334    859.53182    -581.3851    719.15314 
  430500    295.81695   -3748.2081    -3241.188   -3748.2081            0    10161.106    16.920533    19.930153    20.643011    6961.4181     10763.55    11002.319    8717.4495    1351.1848     140.6262    29.221455 
  431000    307.07181   -3739.3215   -3213.0109   -3739.3215            0    9784.5553    16.969169     19.98744    20.702347      7021.62    7760.0126    9456.0273    12137.626   -797.53786     544.1304   -1088.7935 
  431500    303.97239   -3761.7873   -3240.7891   -3761.7873            0    8582.0036    16.940951    19.954203    20.667921    6986.6494    8471.0516    10011.762    7263.1973    1765.3853   -174.05035    506.88938 
  432000    312.16736   -3766.9813   -3231.9371   -3766.9813            0    8873.7965    16.973328    19.992339    20.707421    7026.7845    9010.0076    8078.8374    9532.5444    434.85215   -40.872936    318.36422 
  432500    293.87684   -3752.9407   -3249.2459   -3752.9407            0    9823.0022    16.912743    19.920977    20.633507    6951.8071    9909.1709    9695.5013    9864.3344   -1625.9138    409.75405    758.95039 
  433000    295.38708   -3714.2293    -3207.946   -3714.2293            0     10097.13    16.942249    19.955731    20.669504    6988.2551     11911.23    10132.152    8248.0088   -200.09737   -341.84347    1102.6713 
  433500    297.93974   -3731.0993   -3220.4407   -3731.0993            0    9851.3866    17.004642    20.029222    20.745624    7065.7469    12489.119    8046.7514    9018.2889    892.14117   -411.14707   -770.38135 
  434000    303.86835   -3768.9734   -3248.1535   -3768.9734            0    7867.8259    16.976206    19.995729    20.710932    7030.3593    7351.7226     6835.372    9416.3831   -898.67586    239.09014   -193.28678 
  434500    304.17209   -3727.0452   -3205.7047   -3727.0452            0    9285.5263    16.937942    19.950658    20.664249     6982.927    8844.4489    10371.774    8640.3559    1377.5535   -355.23324    2.4654803 
  435000    307.47748   -3764.1105   -3237.1046   -3764.1105            0    11337.145    16.866718    19.866766    20.577357    6895.2081    10747.133      11709.9    11554.403    1210.0727   -178.29874    112.63381 
  435500    283.41023   -3771.2898   -3285.5343   -3771.2898            0    8052.1701    16.987278     20.00877    20.724439    7044.1237    8564.0614    7810.9638    7781.4849    768.04645    464.38212    2027.8875 
  436000    305.77561   -3759.7431   -3235.6542   -3759.7431            0    11684.685    16.861859    19.861043    20.571429    6889.2504    10423.499    13165.918    11464.637   -559.01473   -1528.4247    26.712188 
  436500    291.38831   -3734.6745   -3235.2449   -3734.6745            0    8668.3858    16.928677    19.939745    20.652946    6971.4746    7390.8914    10440.444    8173.8218   -1260.7305   -620.47562   -465.61787 
  437000    301.33276   -3747.1694   -3230.6953   -3747.1694            0    9617.5714    16.871238    19.872089     20.58287    6900.7519    9988.5858    9807.4235    9056.7049   -665.03131     1202.845   -565.82446 
  437500    298.58786   -3750.3418   -3238.5724   -3750.3418            0    10352.147    16.906071    19.913118    20.625367    6943.5828    10805.474    11341.128     8909.839   -825.01532   -647.26522   -286.59184 
  438000    316.70472    -3774.132   -3231.3109    -3774.132            0    10997.129    16.876582    19.878384     20.58939    6907.3114    10958.307    11161.521    10871.559   -578.12133    1001.5965   -825.88124 
  438500    306.16394   -3746.1951   -3221.4406   -3746.1951            0     11523.59    16.894644    19.899659    20.611426    6929.5129    10445.806    13149.968    10974.995    477.78416     2496.415    296.27882 
  439000    309.76466   -3703.7476   -3172.8216   -3703.7476            0    8927.9734    16.945685    19.959778    20.673696    6992.5079    9703.6003    7467.4485    9612.8715    286.91853    1237.9801   -1378.4006 
  439500    299.75348   -3717.6923   -3203.9251   -3717.6923            0    8410.2091     16.99695    20.020162    20.736239    7056.1627    9781.5434      7273.13    8175.9537    -482.1487    800.89615    616.43534 
  440000    298.54958   -3742.5315   -3230.8278   -3742.5315            0    10330.263    16.952434    19.967728     20.68193    7000.8665    8781.5826    10098.054    12111.151    764.80891   -410.67705     -1699.84 
  440500    296.01954   -3785.3793   -3278.0119   -3785.3793            0      9985.71    16.973064    19.992028    20.707099    7026.4566    11144.702     7793.799    11018.629   -1273.6656   -446.40705    295.25483 
  441000    282.15013   -3762.4319   -3278.8362   -3762.4319            0    9704.2865    16.942799    19.956379    20.670175     6988.936    10379.943    9534.0852    9198.8308   -268.72697    925.45645     -1147.95 
  441500    292.75277   -3780.4101   -3278.6419   -3780.4101            0     10349.47    16.943045    19.956669    20.670475    6989.2401    10710.643    10302.867      10034.9   -719.74223    1394.7656    234.64712 
  442000    297.31703   -3747.4859   -3237.8947   -3747.4859            0     8693.938    16.947596     19.96203    20.676028    6994.8745    10554.444    5074.0178    10453.352    425.89555    779.13954   -1144.6344 
  442500    281.00951   -3732.8912   -3251.2506   -3732.8912            0     9752.011    17.012512    20.038492    20.755225     7075.562    9477.0611    10535.444    9243.5275   -52.876898    977.22634   -453.47893 
  443000    303.60933   -3763.6098   -3243.2338   -3763.6098            0    10150.836    16.924182    19.934451    20.647463    6965.9232    10139.826    9698.2531    10614.429    781.40105   -1037.0704    1642.3537 
  443500    306.33079   -3746.1961   -3221.1556   -3746.1961            0    10362.971    16.967413    19.985371    20.700204    7019.4405    9395.5662    10573.831    11119.516    458.15779    84.407389    207.56628 
  444000    294.19521   -3759.7165    -3255.476   -3759.7165            0    9106.1317    17.002899     20.02717    20.743497    7063.5747    10677.441    8544.7452    8096.2095    1073.0937    -695.5611    -1346.006 
  444500    272.25674   -3746.0569   -3279.4181   -3746.0569            0    9361.7095    17.002753    20.026997    20.743319    7063.3926    10250.347    8225.8659    9608.9161    543.40386    604.37843   -761.93889 
  445000    291.40999   -3738.2519   -3238.7852   -3738.2519            0    11445.727    16.924267    19.934551    20.647566    6966.0277    12066.731    9825.1139    12445.335    154.18305     973.6582   -478.15371 
  445500    304.81507    -3690.907   -3168.4644    -3690.907            0    10546.317     16.95527    19.971068     20.68539    7004.3802    12028.692    8747.3257    10862.933    256.66141     867.1722   -1583.9736 
  446000    301.98327   -3723.6497   -3206.0607   -3723.6497            0    6697.0586    17.063423    20.098458    20.817336    7139.2743    8208.1478    5236.7906    6646.2375    2183.2502    -523.6642    280.41028 
  446500    306.71707   -3709.9964   -3184.2939   -3709.9964            0    9073.1603    16.953235    19.968671    20.682907    7001.8584    9906.5182     8126.785    9186.1778    335.51331   -193.20477    1505.7778 
  447000     308.3004   -3722.0144   -3193.5981   -3722.0144            0    9663.3756    17.004982    20.029623    20.746039    7066.1708    8171.3933    8703.1465    12115.587    266.04168    56.973301    560.12629 
  447500    314.39729   -3723.6752    -3184.809   -3723.6752            0    11147.583     16.90841    19.915873     20.62822    6946.4655    11425.924    10641.185     11375.64   -279.79587     1028.557   -398.03347 
  448000    299.74101   -3728.6065   -3214.8607   -3728.6065            0    11476.204    16.912745     19.92098     20.63351    6951.8104    9880.6337    11543.701    13004.278   -374.20138   -680.52467    275.78966 
  448500    286.67649   -3754.2748   -3262.9211   -3754.2748            0    8834.2861     17.01507    20.041505    20.758346    7078.7537    9637.7072    8097.1918    8767.9594   -1117.4108    329.56213    1059.2227 
  449000    293.34388    -3726.247   -3223.4656    -3726.247            0    9870.1652    16.923304    19.933417    20.646392     6964.839    7978.4151    10465.062    11167.018    1786.1796    473.26443    802.62374 
  449500    302.01125   -3718.9302   -3201.2933   -3718.9302            0    9805.5869    16.949077    19.963774    20.677835    6996.7083    8996.5617    10556.211    9863.9882    126.67561    71.046499    415.76807 
  450000    293.02659   -3710.9928   -3208.7553   -3710.9928            0    13356.996    16.852023    19.849457    20.559429    6877.2013    13972.459    12980.476    13118.052    923.23087   -448.67459    279.11549 
  450500    299.37613   -3746.3102   -3233.1897   -3746.3102            0    11865.989    16.949552    19.964334    20.678414    6997.2964    11334.201     11440.93    12822.836   -224.47027    2043.1968    354.98398 
  451000    287.16534   -3732.5742   -3240.3826   -3732.5742            0    8063.8605    17.006378    20.031267    20.747742    7067.9113    10061.187    6555.4996     7574.895   -1306.9607   -950.99983   -2106.9051 
  451500     310.6988   -3709.5605   -3177.0334   -3709.5605            0    10000.223     16.91288    19.921139    20.633674    6951.9764    10642.196    9168.3336     10190.14   -1290.8223   -442.38817   -485.83151 
  452000    298.59446   -3741.7123   -3229.9316   -3741.7123            0    8503.7355    17.025648    20.053965    20.771251    7091.9646    7423.0472    10179.333    7908.8261    1279.5076    804.31027   -172.98783 
  452500    295.95491   -3747.9449   -3240.6883   -3747.9449            0     11767.36    17.002058    20.026178     20.74247    7062.5255    13459.266     10806.83    11035.984    1582.7177   -1947.7336    121.71041 
  453000    296.75002   -3765.4787   -3256.8593   -3765.4787            0    9143.0269    17.030107    20.059216    20.776691    7097.5378    10454.656    8483.8943    8490.5308   -1375.9645   -328.16644    1004.8255 
  453500    302.02333   -3719.0533   -3201.3957   -3719.0533            0    10095.669    16.999051    20.022637    20.738803      7058.78    10480.063    10537.423    9269.5204   -592.77957    1634.3703   -154.83508 
  454000    329.71264   -3720.8838   -3155.7676   -3720.8838            0    9903.0529    16.943735    19.957482    20.671317    6990.0944    9674.9266    12253.821    7780.4115   -497.71879    1251.6935    2864.1309 
  454500    296.72746   -3732.9416   -3224.3608   -3732.9416            0    9636.7097     16.94893    19.963601    20.677655    6996.5264    9081.4616    9649.3265    10179.341    1956.9649    404.35396    1928.2961 
  455000    311.71448    -3732.665    -3198.397    -3732.665            0    11178.957    16.907456     19.91475    20.627057    6945.2904    12939.726      8832.28    11764.864    187.58815   -169.69049    1692.2412 
  455500    275.35478   -3725.9848   -3254.0362   -3725.9848            0    10693.021    16.972801    19.991718    20.706778    7026.1296    10114.287    11867.711    10097.065   -594.05904    710.24026   -1876.5278 
  456000    297.71804   -3729.5781   -3219.2996   -3729.5781            0    11663.448    16.924857    19.935246    20.648286     6966.756    10731.216    11781.607    12477.523    65.105298    337.64611   -608.50474 
  456500    284.71221   -3712.8066   -3224.8196   -3712.8066            0    9770.8504    16.949782    19.964604    20.678694    6997.5809    10469.172    9867.9324     8975.447    486.88435    1795.9581   -784.46827 
  457000    307.49135   -3779.3416   -3252.3119   -3779.3416            0    10854.787      16.9854    20.006558    20.722149    7041.7882    9565.6224    9984.4071    13014.331   -7.0177438    -1477.984   -73.833075 
  457500    300.32715   -3748.8563   -3234.1058   -3748.8563            0    10667.865    16.967131    19.985039     20.69986    7019.0902     10201.14    10650.023    11152.431    570.54154    -206.2442    1499.6214 
  458000    299.00581   -3756.0942   -3243.6084   -3756.0942            0    10337.511    16.982482    20.003121    20.718589    7038.1596    10635.385    9859.0429    10518.105    520.23833    980.69696    80.157707 
  458500    294.72527   -3739.9326   -3234.7835   -3739.9326            0    7334.9069    17.012251    20.038184    20.754906     7075.236    8532.1448    7361.8155    6110.7603    605.63883   -254.96199   -177.05204 
  459000    290.81437   -3752.6487   -3254.2028   -3752.6487            0    9357.0758    16.937536     19.95018    20.663754    6982.4248    9413.8578    8488.0819    10169.288    338.38599     1120.334    588.06961 
  459500    283.87281   -3791.9528   -3305.4045   -3791.9528            0     10425.71    16.915432    19.924145    20.636788     6955.124    9441.9669    10450.787    11384.377       1148.3    564.49313    683.43119 
  460000    299.47722   -3696.7495   -3183.4558   -3696.7495            0    9442.9958    16.861056    19.860096    20.570449    6888.2655    8401.0319    10642.487     9285.469   -425.03616     1012.609    1056.3553 
  460500    294.29719   -3705.7093    -3201.294   -3705.7093            0    9266.0643    16.921251    19.930998    20.643886    6962.3037    10166.489     7337.977    10293.727     558.3057    684.76519    554.32192 
  461000    295.54719   -3720.0048    -3213.447   -3720.0048            0    10790.298    17.007095    20.032111    20.748616    7068.8045    9579.3959    11403.607    11387.893   -1692.8261   -332.95264    1852.0202 
  461500    296.50846   -3744.2269   -3236.0216   -3744.2269            0    9894.2304    16.998926     20.02249     20.73865     7058.624    8175.7252    8783.4835    12723.482    319.79102    -1385.893    853.53923 
  462000    301.35789   -3719.3643   -3202.8472   -3719.3643            0    10570.004    16.995399    20.018336    20.734348    7054.2316    10684.357     10956.23    10069.424   -850.51248     411.8143     627.7993 
  462500    309.29198   -3689.5587   -3159.4429   -3689.5587            0    11525.355    16.920273    19.929846    20.642693    6961.0969    9405.2863    12326.596    12844.184    1600.9086   -684.52537   -260.32748 
  463000    291.61527   -3726.1694   -3226.3508   -3726.1694            0    9311.8664    16.980709    20.001032    20.716426    7035.9552    9614.0984    10148.223    8173.2777   -349.59747   -294.42017   -1381.5633 
  463500    302.91973   -3696.6307   -3177.4367   -3696.6307            0    9527.6303    16.969093     19.98735    20.702254    7021.5255    9508.5688    8503.5509    10570.771    1313.4635    230.81628    1288.1505 
  464000    302.12918   -3704.0518   -3186.2127   -3704.0518            0    8533.6349    17.057177    20.091101    20.809716    7131.4371    8502.3311    9798.2853    7300.2884    97.145869    -2219.862   -367.25548 
  464500    292.70781   -3751.9005   -3250.2094   -3751.9005            0    9608.5386    16.958636    19.975033    20.689496    7008.5522    9150.8467    9097.6352    10577.134    715.03021    448.08169    1096.9039 
  465000    281.79498   -3709.0038   -3226.0169   -3709.0038            0    8492.5247    16.948143    19.962673    20.676694    6995.5509    8782.0084    8651.5511    8044.0145    483.84077    1032.1142    164.04228 
  465500    289.30739   -3721.8592   -3225.9962   -3721.8592            0    8171.9822    17.004607    20.029181    20.745581    7065.7036    10306.365    8343.8894    5865.6924   -637.10267   -1065.3189   -3.7003733 
  466000    293.43623   -3694.0271   -3191.0875   -3694.0271            0    11291.297    16.900146     19.90614    20.618139    6936.2857    13655.767    11163.293    9054.8299   -641.36096    -1586.513    1025.3678 
  466500    304.03189   -3754.9237   -3233.8234   -3754.9237            0    9777.6872    16.925719    19.936261    20.649337    6967.8202    10370.979    9191.9381    9770.1449   -522.31879   -243.81317    151.58961 
  467000    306.24554   -3712.6594    -3187.765   -3712.6594            0    10212.715    16.897789    19.903363    20.615263    6933.3835     10046.16    9964.4519    10627.533   -1473.3609    603.43385    -640.9108 
  467500    287.00593    -3712.608   -3220.6897    -3712.608            0    11576.684    16.889859    19.894023    20.605589     6923.627    12866.601    10359.875    11503.577   -1429.8319    294.34845    952.86205 
  468000    296.79611   -3719.7565   -3211.0582   -3719.7565            0    10235.027    16.900475    19.906528    20.618541    6936.6911    11198.891     11645.27    7860.9206     1092.537    1282.8505    476.64247 
  468500    296.42864   -3710.0762   -3202.0077   -3710.0762            0    8906.5375     16.97721    19.996911    20.712157    7031.6068    8833.9883    10650.949    7234.6752    1857.3184    399.03561    6.7338455 
  469000    313.22003   -3728.8528   -3192.0044   -3728.8528            0    10361.516     16.95996    19.976592    20.691111    7010.1942    8605.1248    11659.922    10819.501   -35.012718    1191.7554    1218.8965 
  469500    297.30735    -3696.936   -3187.3613    -3696.936            0    11343.635    16.942802    19.956383    20.670179    6988.9399    10262.582    11909.745    11858.579    1158.1289   -425.69202   -1395.1612 
  470000    308.66004   -3712.0125   -3182.9798   -3712.0125            0    11930.093    16.933835     19.94582    20.659239    6977.8485    11773.773    12162.154    11854.351     644.2218     253.3395   -704.59428 
  470500    296.80324   -3724.7479   -3216.0373   -3724.7479            0    10352.114    16.964524    19.981968     20.69668    7015.8552    11015.089    10303.189    9738.0639   -889.72471    1169.8548   -454.97882 
  471000     310.5118   -3689.0687   -3156.8621   -3689.0687            0    11217.417    16.973409    19.992434     20.70752    7026.8851     10658.08     10896.87    12097.301   -1209.8531    605.18204    -1044.708 
  471500     297.4341   -3709.8991   -3200.1072   -3709.8991            0    9264.3905    17.038279    20.068842     20.78666      7107.76    10286.207    9443.6237    8063.3404    1095.0153    494.01565   -70.231723 
  472000    315.57602   -3679.7703   -3138.8838   -3679.7703            0    10048.779    16.973041    19.992001    20.707071    7026.4278    9629.5474    9808.9398    10707.848    178.62675   -136.75526   -964.32288 
  472500     309.7502   -3714.1089   -3183.2077   -3714.1089            0    9984.5732    16.949786    19.964609    20.678699     6997.586    11744.771    10268.957    7939.9923    479.05726   -180.19395    954.74372 
  473000    311.73198   -3760.1017   -3225.8038   -3760.1017            0    10641.934    16.963817    19.981136    20.695818    7014.9786    10819.758    7885.3037    13220.741    1736.0506    419.98694    170.84938 
  473500    287.95217   -3715.2374   -3221.6972   -3715.2374            0    11304.077    17.009265    20.034667    20.751264    7071.5112    9800.7817    11645.017    12466.432   -1488.9156   -37.154915    2491.0614 
  474000    295.48438   -3752.7236   -3246.2735   -3752.7236            0    9113.8826    17.058439    20.092587    20.811255    7133.0196    9475.4193    9198.6036     8667.625    468.82031    -929.2528    75.326502 
  474500    310.74675   -3715.2478   -3182.6385   -3715.2478            0    9599.8641    17.013048    20.039123    20.755879    7076.2305    9827.2366    9847.5821    9124.7737    227.48324   -479.26602   -1028.7794 
  475000    304.16119   -3712.7399    -3191.418   -3712.7399            0    11007.592    16.954563    19.970235    20.684527    7003.5039    11357.869    9162.9373     12501.97    -450.9811     967.6232   -1348.8419 
  475500     289.6311   -3768.0552   -3271.6374   -3768.0552            0    10203.259    16.953119    19.968535    20.682765    7001.7146    9478.3587    9289.6296    11841.788    -511.1604   -758.76726    1032.2479 
  476000    306.43118   -3722.9414   -3197.7289   -3722.9414            0    8276.0246     16.94031    19.953447    20.667138    6985.8561    8125.4676    8191.5991    8511.0073   -305.27142   -1444.3654    314.83668 
  476500     299.4879   -3779.2599   -3265.9479   -3779.2599            0    10156.795    16.896322    19.901636    20.613474    6931.5784    11441.948    8978.8573    10049.579    989.27725    1610.2162   -157.09849 
  477000    308.75972   -3732.0873   -3202.8837   -3732.0873            0    12651.244      16.9683    19.986417    20.701287    7020.5418    11152.308    12943.434    13857.991   -159.10495   -525.32188    376.81022 
  477500    302.87906   -3694.8508   -3175.7265   -3694.8508            0    10608.436    16.919505    19.928942    20.641757    6960.1493    10295.574    9411.0559    12118.677   -725.80377   -725.49086    933.08673 
  478000    289.43211    -3735.328   -3239.2512    -3735.328            0     10153.87     17.01114    20.036875    20.753551    7073.8495    9579.2398     10949.88    9932.4893   -955.54561   -1399.5534    1377.9864 
  478500    303.45298   -3690.5497   -3170.4417   -3690.5497            0    11180.042    16.939612    19.952625    20.666287    6984.9924    8533.8933    14571.731    10434.501     680.8382    1611.1586    629.39768 
  479000    299.20363   -3713.3706   -3200.5458   -3713.3706            0    10170.718    16.988332    20.010011    20.725725    7045.4345    10441.346    10903.452    9167.3557   -700.58467   -1081.6137   -178.21807 
  479500    277.48649   -3765.3311   -3289.7287   -3765.3311            0    10725.266    16.904685    19.911486    20.623676    6941.8754    10534.686    10204.846    11436.264   -911.30032    1026.7775   -1754.6372 
  480000    280.60394   -3675.7727   -3194.8271   -3675.7727            0    9995.1598    17.036003    20.066162    20.783884    7104.9125    12345.337    9563.4737    8076.6691     891.0806   -322.97101    362.94333 
  480500    287.30437   -3676.4436   -3184.0138   -3676.4436            0    8189.6836    17.111263    20.154807    20.875701    7199.4905    9264.4127    6902.9944    8401.6438   -495.99145    -490.4753     1103.033 
  481000    283.28271   -3710.4283   -3224.8914   -3710.4283            0    8335.6606     16.97988    20.000056    20.715414    7034.9246    9129.8552    9732.6812    6144.4452   -146.16129   -1366.9519     639.6077 
  481500    290.65772   -3725.1961   -3227.0188   -3725.1961            0     9796.237    16.975249    19.994601    20.709764    7029.1702    10694.612    9294.0105    9400.0881   -978.33191    403.40883   -559.57382 
  482000    278.37497   -3756.5226   -3279.3974   -3756.5226            0    8889.5666     17.08527    20.124191    20.843989    7166.7313    9734.8504    9192.5892    7741.2602    1288.2505   -190.06099    147.06462 
  482500    294.85933   -3728.9738    -3223.595   -3728.9738            0    8328.6471    17.095383    20.136103    20.856327    7179.4648     7877.632    9578.2209    7530.0883    1355.4807   -19.363052   -248.21488 
  483000    285.48665   -3753.0053   -3263.6909   -3753.0053            0     11147.99    16.955769    19.971656    20.685998    7004.9982    11569.919    9318.6259    12555.424    780.70275   -899.59886    861.75056 
  483500    305.56431    -3729.528   -3205.8013    -3729.528            0    11649.027    16.882514    19.885371    20.596627    6914.5978    13524.633    10159.649      11262.8    52.332175   -472.42047    1475.2107 
  484000    310.93357    -3792.821   -3259.8915    -3792.821            0    8919.0107    16.946652    19.960918    20.674876    6993.7053    7859.5715    9460.7294    9436.7312   -235.03586    413.71903    740.40461 
  484500    294.74172    -3739.164   -3233.9867    -3739.164            0    10986.502     16.93909     19.95201     20.66565     6984.347     8872.502    11517.803    12569.202    374.09056   -545.91465    1658.3264 
  485000    312.43074    -3748.488   -3212.9924    -3748.488            0    9706.6441    16.946425     19.96065    20.674599    6993.4239    9475.2408    8532.7828    11111.909    35.590993    218.60547   -66.357333 
  485500    299.42244    -3707.449   -3194.2492    -3707.449            0    9586.1382    16.989171    20.010999    20.726749    7046.4788    7284.1936    9455.3575    12018.863    115.36605    57.868068    206.34031 
  486000    298.40739   -3752.2409   -3240.7808   -3752.2409            0    11429.264    16.959712      19.9763    20.690809    7009.8864    12390.412     9194.396    12702.984   -328.27261    692.19596   -1439.1475 
  486500    302.29393   -3771.1262   -3253.0048   -3771.1262            0    11122.917    16.953125    19.968542    20.682773    7001.7228    10116.484    10700.262    12552.006   -268.49709    -2592.446   -54.084845 
  487000    312.48728   -3764.4201   -3228.8276   -3764.4201            0     7852.449    17.069883    20.106068    20.825218    7147.3864    8084.5837    8061.5285    7411.2347   -1213.8455   -1514.9567   -151.29311 
  487500    300.07801   -3759.2431   -3244.9197   -3759.2431            0    8681.5399     16.97717    19.996863    20.712107    7031.5562    9894.5853     8218.892    7931.1425   -551.73178    1211.7077     560.3566 
  488000    309.91916   -3713.2667   -3182.0759   -3713.2667            0    10412.236     16.91219    19.920326    20.632832    6951.1256    9092.2165    12268.404    9876.0866   -1619.4132   -157.39909   -1581.5481 
  488500    301.20239   -3713.7623   -3197.5117   -3713.7623            0     9157.465     16.98661    20.007983    20.723625    7043.2929    9123.8492    10876.905    7471.6409   -1848.3248    622.99287    404.93779 
  489000    284.96172   -3755.7251   -3267.3105   -3755.7251            0    8464.5419    17.044219    20.075839    20.793908     7115.197    8564.3464    8424.8584    8404.4208    425.10015   -102.20067   -296.15208 
  489500    310.89716   -3704.8713   -3172.0042   -3704.8713            0     9759.916     16.98238       20.003    20.718464    7038.0322    10008.034    10019.849     9251.865   -464.12572    681.02254   -818.16819 
  490000    290.76398   -3666.2998   -3167.9403   -3666.2998            0    9344.6455    16.976877    19.996519     20.71175    7031.1927    8054.6517    10962.248    9017.0368    1533.2177   -797.96925    188.29764 
  490500    295.86731   -3742.0323   -3234.9258   -3742.0323            0    8957.6699    16.910253    19.918044    20.630469    6948.7374    7915.0673    9806.3166    9151.6258    328.49811    812.10648   -709.51331 
  491000    303.24467   -3745.1676   -3225.4166   -3745.1676            0    10965.666    16.868884    19.869317    20.579999    6897.8643    9362.2673    10475.256    13059.476    995.34797    1171.5408   -2050.0624 
  491500    303.71895   -3741.8813   -3221.3174   -3741.8813            0    8474.4881    16.990734     20.01284    20.728656    7048.4237    7214.9352    8775.4263    9433.1029   -762.78148    1082.7282    1515.5927 
  492000    307.94793   -3724.1464   -3196.3342   -3724.1464            0    10955.546    16.937855    19.950556    20.664144      6982.82    9772.8981    10957.882    12135.857   -2841.7128   -2591.3102   -2240.9483 
  492500    288.40313   -3760.4888   -3266.1757   -3760.4888            0    10161.214    16.909314    19.916939    20.629324    6947.5804    9957.9563    10477.392    10048.294   -1002.4399   -363.86612   -299.78425 
  493000    287.49027   -3724.2989   -3231.5504   -3724.2989            0    11376.711    16.891636    19.896116    20.607756    6925.8121    11263.814    10033.385    12832.934    29.807737    438.86481   -318.29662 
  493500    305.30666   -3749.4546   -3226.1695   -3749.4546            0     8967.733    16.945168     19.95917    20.673065    6991.8681    8279.1464    9055.6993    9568.3532   -246.36853    1510.1716    910.65564 
  494000    306.71137   -3715.2079   -3189.5151   -3715.2079            0     10404.66    16.909445    19.917093    20.629484    6947.7418    11099.956    8928.9313    11185.092   -179.34274    1306.1376    528.19825 
  494500    304.66902   -3675.1179   -3152.9256   -3675.1179            0    11430.532    16.909593    19.917267    20.629664     6947.924    10380.818    9683.1206    14227.658    1116.4892    -719.4257   -51.588181 
  495000    306.88413   -3706.3448   -3180.3559   -3706.3448            0    11947.808    16.863962     19.86352    20.573995    6891.8285    8691.6599    14258.084    12893.679   -1063.0449    483.47251   -1293.7932 
  495500     291.8143   -3754.7905   -3254.6308   -3754.7905            0    9591.8881    16.941736    19.955127    20.668879    6987.6209    10311.991    8275.2506    10188.423    585.94827   -298.12306    2351.5573 
  496000    304.94187   -3709.1373   -3186.4773   -3709.1373            0    9737.2344    16.960644    19.977399    20.691947    7011.0431    9873.1199    7112.7656    12225.818     590.4981    1273.5576   -116.82565 
  496500    313.35374   -3735.7001   -3198.6225   -3735.7001            0    10991.483    16.945753    19.959859    20.673779    6992.5921     9468.354     10013.87    13492.226    -831.9898    341.90803    135.09593 
  497000     291.8232   -3739.1638   -3238.9888   -3739.1638            0    10420.453    16.900705    19.906798    20.618821    6936.9738    10049.564     9789.252    11422.542   -315.30811    1388.5673    621.73224 
  497500    299.49199   -3741.6724   -3228.3534   -3741.6724            0    10499.743    16.933758     19.94573    20.659145    6977.7536    10332.503     10872.84    10293.886    2020.7124   -1211.1634   -547.62198 
  498000    302.50478   -3733.8652   -3215.3823   -3733.8652            0    10774.969    16.908892    19.916441    20.628809    6947.0598    13561.727    10324.301    8438.8781   -1092.3822   -862.76592   -636.37206 
  498500    293.41818    -3721.381   -3218.4723    -3721.381            0    10025.757    16.939342    19.952307    20.665957    6984.6584    9695.1979    11034.356     9347.717    1017.6618   -708.05891    102.72274 
  499000    284.73942   -3736.6256    -3248.592   -3736.6256            0    12248.509    16.883533    19.886572    20.597871    6915.8504    10916.275    12133.999    13695.253   -445.65291    -976.9758    1865.8444 
  499500    307.52086   -3744.0724   -3216.9922   -3744.0724            0    11671.434    16.934356    19.946435    20.659875    6978.4936    11889.172    12709.063    10416.066    348.76139     81.33234   -1208.5306 
  500000    305.80001   -3733.3189   -3209.1881   -3733.3189            0    11553.525     16.87911    19.881362    20.592475    6910.4166    13041.506    11164.584    10454.484   -2187.3286   -2877.8454    69.485999 
Loop time of 1238.08 on 8 procs for 500000 steps with 864 atoms

Performance: 69.786 ns/day, 0.344 hours/ns, 403.852 timesteps/s
100.0% CPU use with 8 MPI tasks x 1 OpenMP threads

MPI task timing breakdown:
Section |  min time  |  avg time  |  max time  |%varavg| %total
---------------------------------------------------------------
Pair    | 509.73     | 586.3      | 667.05     | 217.1 | 47.36
Bond    | 0.79579    | 0.8456     | 0.88598    |   2.9 |  0.07
Kspace  | 270.98     | 352.19     | 429.32     | 281.1 | 28.45
Neigh   | 39.533     | 39.614     | 39.695     |   1.1 |  3.20
Comm    | 40.757     | 57.266     | 62         |  83.5 |  4.63
Output  | 1.6117     | 1.6124     | 1.6152     |   0.1 |  0.13
Modify  | 163.57     | 176.12     | 216.24     | 116.0 | 14.23
Other   |            | 24.13      |            |       |  1.95

Nlocal:    108 ave 114 max 103 min
Histogram: 1 1 1 1 1 0 1 1 0 1
Nghost:    3683.25 ave 3717 max 3650 min
Histogram: 1 0 1 1 0 2 2 0 0 1
Neighs:    35669.9 ave 40276 max 31981 min
Histogram: 2 1 0 1 0 1 0 1 1 1

Total # of neighbors = 285359
Ave neighs/atom = 330.277
Ave special neighs/atom = 2
Neighbor list builds = 35248
Dangerous builds = 6

unfix		3
unfix		2
unfix		1

write_data	data.final.${pid}
write_data	data.final.0
PPPM initialization ...
  extracting TIP4P info from pair style
  using 12-bit tables for long-range coulomb (src/kspace.cpp:332)
  G vector (1/distance) = 0.374728
  grid = 24 24 24
  stencil order = 5
  estimated absolute RMS force accuracy = 0.00310817
  estimated relative force accuracy = 9.36017e-06
  using double precision FFTW3
  3d grid and FFT values/proc = 7581 1728
Last active /omp style is kspace_style pppm/tip4p/omp

write_restart   restart.lmp.${pid}
write_restart   restart.lmp.0
PPPM initialization ...
  extracting TIP4P info from pair style
  using 12-bit tables for long-range coulomb (src/kspace.cpp:332)
  G vector (1/distance) = 0.374728
  grid = 24 24 24
  stencil order = 5
  estimated absolute RMS force accuracy = 0.00310817
  estimated relative force accuracy = 9.36017e-06
  using double precision FFTW3
  3d grid and FFT values/proc = 7581 1728
Last active /omp style is kspace_style pppm/tip4p/omp
Total wall time: 0:20:38
