LAMMPS (30 Jul 2021)
  using 1 OpenMP thread(s) per MPI task
package omp 0
using multi-threaded neighbor list subroutines
echo both

include		in.partitions
variable        pid world 0
include		in.temp
variable	temperature equal 230.0
variable	tempDamp equal 100.0
include		in.pressure
variable        pressure equal 3000.
variable        pressureDamp equal 1000.0 # This is 1 ps
include		in.seed
variable        seed world 745823

units		real
atom_style	full
include		in.box
read_data       iceIII.data
Reading data file ...
  orthogonal box = (0.0071020000 0.0044740000 -0.050387000) to (46.652896 19.995527 20.750385)
  8 by 2 by 2 MPI processor grid
  reading atoms ...
  2268 atoms
  scanning bonds ...
  2 = max bonds/atom
  scanning angles ...
  1 = max angles/atom
  reading bonds ...
  1512 bonds
  reading angles ...
  756 angles
Finding 1-2 1-3 1-4 neighbors ...
  special bond factors lj:    0        0        0       
  special bond factors coul:  0        0        0       
     2 = max # of 1-2 neighbors
     1 = max # of 1-3 neighbors
     1 = max # of 1-4 neighbors
     2 = max # of special neighbors
  special bonds CPU = 0.002 seconds
  read_data CPU = 0.018 seconds
include 	in.setup
variable	out_freq equal 500
variable	out_freq2 equal 500

timestep	2.0

neigh_modify    delay 7 every 1

include		in.tip4p
# This is TIP4P/Ice

# create groups ###
group ox type 2
756 atoms in group ox
group hy type 1
1512 atoms in group hy

# set charges - beside manually ###
set group ox charge -1.1794
Setting atom values ...
  756 settings made for charge
set group hy charge 0.5897
Setting atom values ...
  1512 settings made for charge

# ### TIP3P Potential Parameters ###
pair_style lj/cut/tip4p/long 2 1 1 1 0.1577 8.5
pair_coeff 1 1*2 0.000 0.000
pair_coeff 2 2 0.21084 3.1668
bond_style  harmonic
bond_coeff  1 450 0.9572
angle_style harmonic
angle_coeff 1 55 104.52
kspace_style pppm/tip4p 1.0e-5
pair_modify tail yes

thermo          ${out_freq}
thermo          500
thermo_style 	custom step temp pe etotal epair emol press lx ly lz xy xz yz vol pxx pyy pzz pxy pxz pyz cella cellb cellc cellalpha cellbeta cellgamma

restart 	${out_freq} restart.lmp.${pid} restart2.lmp.${pid}
restart 	500 restart.lmp.${pid} restart2.lmp.${pid}
restart 	500 restart.lmp.0 restart2.lmp.${pid}
restart 	500 restart.lmp.0 restart2.lmp.0


include         in.dump
dump            myDump all atom ${out_freq2} dump.water.${pid}
dump            myDump all atom 500 dump.water.${pid}
dump            myDump all atom 500 dump.water.0
dump            myDump2 all dcd ${out_freq2} dump.dcd
dump            myDump2 all dcd 500 dump.dcd
dump_modify     myDump append yes
dump_modify     myDump2 append yes


timer           timeout 04:55:00 every 1000
New timer settings: style=normal  mode=nosync  timeout=04:55:00

fix 		1 all shake 1e-6 200 0 b 1 a 1
       0 = # of size 2 clusters
       0 = # of size 3 clusters
       0 = # of size 4 clusters
     756 = # of frozen angles
  find clusters CPU = 0.000 seconds
fix             2 all nph aniso ${pressure} ${pressure} ${pressureDamp}
fix             2 all nph aniso 3000 ${pressure} ${pressureDamp}
fix             2 all nph aniso 3000 3000 ${pressureDamp}
fix             2 all nph aniso 3000 3000 1000
fix             3 all temp/csvr ${temperature} ${temperature} ${tempDamp} ${seed}
fix             3 all temp/csvr 230 ${temperature} ${tempDamp} ${seed}
fix             3 all temp/csvr 230 230 ${tempDamp} ${seed}
fix             3 all temp/csvr 230 230 100 ${seed}
fix             3 all temp/csvr 230 230 100 745823
velocity 	all create ${temperature} ${seed} dist gaussian
velocity 	all create 230 ${seed} dist gaussian
velocity 	all create 230 745823 dist gaussian

run             500000
PPPM initialization ...
  extracting TIP4P info from pair style
  using 12-bit tables for long-range coulomb (../kspace.cpp:340)
  G vector (1/distance) = 0.3731327
  grid = 48 27 27
  stencil order = 5
  estimated absolute RMS force accuracy = 0.0032773105
  estimated relative force accuracy = 9.8695233e-06
  using double precision FFTW3
  3d grid and FFT values/proc = 6292 1344
Last active /omp style is kspace_style pppm/tip4p/omp
Neighbor list info ...
  update every 1 steps, delay 7 steps, check yes
  max neighbors/atom: 2000, page size: 100000
  master list distance cutoff = 10.8154
  ghost atom cutoff = 10.8154
  binsize = 5.4077, bins = 9 4 4
  1 neighbor lists, perpetual/occasional/extra = 1 0 0
  (1) pair lj/cut/tip4p/long/omp, perpetual
      attributes: half, newton on, omp
      pair build: half/bin/newton/omp
      stencil: half/bin/3d
      bin: standard
Per MPI rank memory allocation (min/avg/max) = 9.589 | 9.604 | 9.621 Mbytes
Step Temp PotEng TotEng E_pair E_mol Press Lx Ly Lz Xy Xz Yz Volume Pxx Pyy Pzz Pxy Pxz Pyz Cella Cellb Cellc CellAlpha CellBeta CellGamma 
       0          230   -11706.567   -10670.646   -11706.567            0    2034.0199    46.645794    19.991053    20.800772            0            0            0     19396.69    4978.2372    3067.1473   -1943.3249    1536.3819   -1500.1013   -146.72995    46.645794    19.991053    20.800772           90           90           90 
     500    239.50328   -11138.368   -10059.644   -11138.368            0     3483.764    46.889898    20.009778    20.850591            0            0            0    19563.202    3372.2725    3231.1024    3847.9171    167.66764    612.76447    353.81768    46.889898    20.009778    20.850591           90           90           90 
    1000    228.78385   -11104.515   -10074.071   -11104.515            0    2256.0124    46.827801    20.116692    20.758917            0            0            0    19555.325    2480.1902    1310.4715    2977.3755   -173.33331    486.72714    192.31601    46.827801    20.116692    20.758917           90           90           90 
    1500    230.53284    -11085.81    -10047.49    -11085.81            0    3689.8794    46.391414     20.01109    20.956106            0            0            0     19454.45    3928.6505    3307.3721    3833.6156   -211.81347    237.98734    386.92144    46.391414     20.01109    20.956106           90           90           90 
    2000    231.49815   -11114.465   -10071.797   -11114.465            0    3090.6814    46.809802    20.022514    20.816996            0            0            0    19510.727    2896.1565    2423.8329    3952.0549    10.264669   -223.26512    1208.3565    46.809802    20.022514    20.816996           90           90           90 
    2500    231.75504    -11089.05   -10045.224    -11089.05            0    3571.2821    47.009699    19.991312    20.880808            0            0            0    19623.482    2925.2999    3869.9552    3918.5913    33.514553    920.98151    385.43768    47.009699    19.991312    20.880808           90           90           90 
    3000    229.45577   -11127.937   -10094.468   -11127.937            0    2214.3484    46.884787    19.959223     20.99857            0            0            0    19650.124    2263.4603    2860.3274    1519.2574   -153.39014   -289.05857    587.14042    46.884787    19.959223     20.99857           90           90           90 
    3500     226.2932   -11124.125   -10104.899   -11124.125            0    4151.8609    47.119429    19.980075    20.697274            0            0            0    19485.443    4018.9168    3971.7826    4464.8834    21.653499    187.59899    523.91299    47.119429    19.980075    20.697274           90           90           90 
    4000    229.25758   -11152.205   -10119.628   -11152.205            0    2684.0882    46.963177    20.074252    20.814262            0            0            0    19622.659    3264.7511    1213.2108    3574.3025    75.570105   -71.673297   -416.91581    46.963177    20.074252    20.814262           90           90           90 
    4500    233.64721   -11145.741   -10093.393   -11145.741            0    1778.0884    46.691061    20.109564    20.946219            0            0            0    19667.178    2698.7493    846.73935    1788.7765   -32.254965   -276.88702    872.57822    46.691061    20.109564    20.946219           90           90           90 
    5000    231.87665   -11079.674   -10035.301   -11079.674            0    4370.7321    46.665841    20.014473    20.832219            0            0            0     19457.13     5043.716    4210.4166    3858.0639    -346.4619    888.69005   -349.73762    46.665841    20.014473    20.832219           90           90           90 
    5500    227.18946   -11147.537   -10124.275   -11147.537            0    2304.2746    46.800889     20.14917    20.888912            0            0            0    19698.225    2426.8525    1622.8583    2863.1131    440.61053    980.93058    633.51224    46.800889     20.14917    20.888912           90           90           90 
    6000    241.86962   -11110.483   -10021.101   -11110.483            0    2221.8521    46.886075    19.926608     20.89396            0            0            0    19520.818    1476.5664    2822.4315    2366.5584    62.178089    283.18328   -361.84005    46.886075    19.926608     20.89396           90           90           90 
    6500    231.42312   -11127.198   -10084.868   -11127.198            0    3243.1729    46.869511    19.946098    20.936792            0            0            0     19573.05     3178.832    3769.7596    2780.9271    200.53305    620.12714   -516.41427    46.869511    19.946098    20.936792           90           90           90 
    7000    229.72696   -11110.672   -10075.981   -11110.672            0    3689.7749    46.891504    20.009701    20.674495            0            0            0    19398.567     4157.803    2433.1945    4478.3274     75.52431   -383.97643    168.32254    46.891504    20.009701    20.674495           90           90           90 
    7500    227.92979   -11094.163   -10067.566   -11094.163            0    3316.8867    46.711415    19.981726    20.942699            0            0            0    19547.385    3177.4202    3737.0149    3036.2251     53.11875    149.08341    20.064879    46.711415    19.981726    20.942699           90           90           90 
    8000    225.58556   -11108.942   -10092.904   -11108.942            0    2017.4882    46.896416    20.043312    20.944782            0            0            0    19687.246    1097.7367     2679.287    2275.4411   -312.99173   -387.32797    463.91843    46.896416    20.043312    20.944782           90           90           90 
    8500    228.17346   -11125.732   -10098.037   -11125.732            0    2867.1798    46.934528    20.215352    20.606056            0            0            0    19550.985    2231.7393    3059.4706    3310.3294   -135.04094    353.54943    227.97605    46.934528    20.215352    20.606056           90           90           90 
    9000    227.72503   -11041.563   -10015.888   -11041.563            0    3279.1606    46.596256    20.034582     20.95295            0            0            0    19560.343    4993.2225    2132.7493    2711.5099   -97.933997   -1261.1506   -286.66834    46.596256    20.034582     20.95295           90           90           90 
    9500    226.49192   -11074.305   -10054.184   -11074.305            0     2562.295    46.765674    20.103905    20.907012            0            0            0    19656.201    3241.7047    2202.6085    2242.5719   -398.55899    215.36692    747.05271    46.765674    20.103905    20.907012           90           90           90 
   10000    232.28015   -11074.785   -10028.594   -11074.785            0    4491.2929    47.003715    20.030042    20.665215            0            0            0    19456.019    4754.5581    3691.6088    5027.7119   -336.24093   -52.885394    242.63127    47.003715    20.030042    20.665215           90           90           90 
   10500    229.49289   -11069.575   -10035.938   -11069.575            0    2927.4144    46.721572    19.938206     21.03531            0            0            0    19595.323       2497.7     2898.102    3386.4413   -50.837391   -408.66172   -179.98537    46.721572    19.938206     21.03531           90           90           90 
   11000    226.80863   -11091.716   -10070.169   -11091.716            0     3223.749    46.757257    20.088187    20.865479            0            0            0    19598.288    3836.4302    3030.2443    2804.5724    261.97412    267.57675    105.02994    46.757257    20.088187    20.865479           90           90           90 
   11500    227.29964   -11090.838   -10067.079   -11090.838            0    1985.5495    47.182473     20.02642    20.791304            0            0            0    19645.621    1197.0793    2703.3706    2056.1987    129.36112   -1051.2073   -355.28572    47.182473     20.02642    20.791304           90           90           90 
   12000    244.23084   -11143.025   -10043.008   -11143.025            0    1827.8356    46.818394    20.053552    20.861134            0            0            0    19585.999    1014.2866    2638.0545    1831.1657    644.74518   -606.83057   -283.73715    46.818394    20.053552    20.861134           90           90           90 
   12500    230.95825   -11092.386   -10052.149   -11092.386            0    3313.3149    46.568072    20.115727    20.939671            0            0            0    19615.251    3813.6177    2783.3757    3342.9513   -759.52481    334.42401    637.04679    46.568072    20.115727    20.939671           90           90           90 
   13000    236.37581   -11102.994   -10038.356   -11102.994            0    3224.5818     46.66599    20.137486    20.733355            0            0            0    19483.875    2311.4172    3593.2521     3769.076    67.015887   -459.92435     -86.2213     46.66599    20.137486    20.733355           90           90           90 
   13500    231.00809   -11156.745   -10116.284   -11156.745            0    2429.7688    46.586687    20.167831    20.836922            0            0            0    19577.381    3058.7098    1521.6409    2708.9556   -232.49992   -255.52416    816.37478    46.586687    20.167831    20.836922           90           90           90 
   14000    225.26186   -11130.536   -10115.955   -11130.536            0    2942.4993    46.803888    19.889523    20.993531            0            0            0    19543.025    1977.2601    3736.9855    3113.2524   -48.882143    610.62277   -351.61481    46.803888    19.889523    20.993531           90           90           90 
   14500    228.35191   -11142.561   -10114.063   -11142.561            0    2924.0163    47.001131    20.037099    20.839918            0            0            0    19626.333    1654.1606    3863.5701    3254.3181   -188.53334    618.13945    384.66646    47.001131    20.037099    20.839918           90           90           90 
   15000    233.06763   -11115.505   -10065.767   -11115.505            0    3507.5747    46.836823    20.091538    20.828524            0            0            0    19600.136    3695.3438    2889.8782    3937.5021   -55.288038    358.38642    474.76522    46.836823    20.091538    20.828524           90           90           90 
   15500    234.20529   -11116.825   -10061.964   -11116.825            0    2609.3835    46.541147    20.162732    20.931152            0            0            0    19641.724    4309.8464     1349.777     2168.527    505.52879    -814.3651    652.66039    46.541147    20.162732    20.931152           90           90           90 
   16000    238.15867   -11132.668       -10060   -11132.668            0    2912.6512     46.80249    20.104924    20.744409            0            0            0    19519.669    3028.4438    2102.6645    3606.8453    498.81054    23.561561   -470.96285     46.80249    20.104924    20.744409           90           90           90 
   16500    234.14806   -11086.906   -10032.302   -11086.906            0    3580.2874    46.863632    20.023211     20.81666            0            0            0     19533.53    2202.2032    4136.6656    4401.9934    339.67239    588.78654    385.62796    46.863632    20.023211     20.81666           90           90           90 
   17000    233.60012   -11112.689   -10060.553   -11112.689            0    3266.8818    46.776707    20.037461    20.908255            0            0            0    19597.025    2744.1013    4251.6225    2804.9217   -21.815617    -385.6873    102.92757    46.776707    20.037461    20.908255           90           90           90 
   17500    231.76037   -11131.441   -10087.591   -11131.441            0    2453.1063    47.092378    19.937296    20.922241            0            0            0    19643.781    1129.2903    4073.8648    2156.1639   -172.84529    621.46748   -114.12785    47.092378    19.937296    20.922241           90           90           90 
   18000    230.57953   -11155.148   -10116.617   -11155.148            0    3813.4892    46.662877    20.080819    20.798733            0            0            0    19489.012    3877.4919    3457.4573    4105.5184   -655.38025    819.05901    723.71993    46.662877    20.080819    20.798733           90           90           90 
   18500     224.7911   -11092.638   -10080.178   -11092.638            0    3385.5105    46.776749    20.052985    20.715443            0            0            0    19431.364    2704.7472    4135.2681    3316.5163   -679.44291    996.99963    674.19428    46.776749    20.052985    20.715443           90           90           90 
   19000    226.52804   -11108.377   -10088.093   -11108.377            0    2399.3554    46.644382    20.157637    20.921779            0            0            0    19671.504    2854.3334    1951.7678    2391.9649   -261.01639    1052.4411   -288.28397    46.644382    20.157637    20.921779           90           90           90 
   19500    228.19815    -11098.45   -10070.645    -11098.45            0    1838.6798    46.894129    20.074683    20.809438            0            0            0    19589.688    2841.3037    682.18126    1992.5544   -422.88336    318.60351   -142.12626    46.894129    20.074683    20.809438           90           90           90 
   20000    222.77048   -11096.283   -10092.924   -11096.283            0    2997.5728    46.920278    19.952435    20.875183            0            0            0      19542.8    3139.1826    3113.4858      2740.05   -408.54447   -794.36276   -249.77486    46.920278    19.952435    20.875183           90           90           90 
   20500    220.58853   -11082.338   -10088.807   -11082.338            0      2365.35    46.945196    19.944286    21.047288            0            0            0    19706.332     1291.716    3694.6692    2109.6649   -125.68118    665.17259   -454.68459    46.945196    19.944286    21.047288           90           90           90 
   21000    230.53941   -11135.156   -10096.806   -11135.156            0    3102.2655    46.978748    20.042176    20.740388            0            0            0    19528.244    2266.2778    3321.1787    3719.3399    289.30208    208.18465    73.041538    46.978748    20.042176    20.740388           90           90           90 
   21500    224.50318   -11127.061   -10115.898   -11127.061            0    3493.1597     46.72128    20.113454    20.815042            0            0            0    19560.443    4799.2677    2651.7441    3028.4674    -185.3688    802.40523   -192.11193     46.72128    20.113454    20.815042           90           90           90 
   22000    237.08834   -11110.782   -10042.936   -11110.782            0    2720.2855    46.744925    19.967853    21.079679            0            0            0    19675.684    3333.9149    3161.2384     1665.703    77.737662   -937.99842   -479.49861    46.744925    19.967853    21.079679           90           90           90 
   22500    229.60905   -11103.275   -10069.115   -11103.275            0    2345.9688    47.240577    20.095354    20.657179            0            0            0    19610.192    1150.0651    2841.3173    3046.5238   -125.71518    384.46832    180.27378    47.240577    20.095354    20.657179           90           90           90 
   23000    230.89916   -11162.788   -10122.817   -11162.788            0    2847.2647    46.867325     19.96486    20.872182            0            0            0    19530.092    1665.2243    3237.4397      3639.13    106.94272   -337.42193   -11.847638    46.867325     19.96486    20.872182           90           90           90 
   23500    228.52943   -11101.641   -10072.344   -11101.641            0    2765.8085     46.77664    19.919833    20.919845            0            0            0    19492.753    965.31961    4926.6187    2405.4872    189.70248    251.02864    4.4784292     46.77664    19.919833    20.919845           90           90           90 
   24000    235.17277   -11069.261   -10010.042   -11069.261            0    3193.0162    46.919349    20.061455    20.847794            0            0            0    19623.411    2309.6198     3417.623     3851.806   -242.56269    96.617071   -61.847279    46.919349    20.061455    20.847794           90           90           90 
   24500    233.12243    -11147.54   -10097.555    -11147.54            0    2766.8748     46.64599    20.088598     20.83774            0            0            0    19526.057    3534.7744      2508.63      2257.22   -141.53989    521.43817   -407.09836     46.64599    20.088598     20.83774           90           90           90 
   25000    229.31041   -11097.518   -10064.703   -11097.518            0    3230.4331    46.375592    20.202701    20.866607            0            0            0     19550.18    2843.4181    3324.1033    3523.7779   -33.400327   -96.050247    7.5627958    46.375592    20.202701    20.866607           90           90           90 
   25500    225.63628    -11128.44   -10112.173    -11128.44            0    2689.0154    46.914778    20.022165    20.833987            0            0            0    19570.102    848.36609    4176.8809    3041.7992   -259.11886    3.5075527   -989.97391    46.914778    20.022165    20.833987           90           90           90 
   26000    232.88967   -11079.589   -10030.653   -11079.589            0    2398.2436    47.013015    19.998671    20.906588            0            0            0    19656.329    1472.9639    3016.2086    2705.5585   -339.49249    804.16981   -607.35762    47.013015    19.998671    20.906588           90           90           90 
   26500    225.96915   -11154.067   -10136.301   -11154.067            0    3387.2533    46.746598    19.982352    20.865696            0            0            0    19490.793    3442.2658    3763.6826    2955.8114    50.186917    239.28857    133.56689    46.746598    19.982352    20.865696           90           90           90 
   27000    230.38616   -11117.339   -10079.678   -11117.339            0    2868.8316    46.886824    20.099575    20.757393            0            0            0    19561.876    2298.2931    3293.0871    3015.1144    207.90826    -490.3829   -20.280502    46.886824    20.099575    20.757393           90           90           90 
   27500     229.1864   -11087.667   -10055.411   -11087.667            0    3276.6723     46.55086    20.149004     20.94197            0            0            0    19642.593     3335.008    3181.1458    3313.8631    -426.7914   -1267.6085    -84.77553     46.55086    20.149004     20.94197           90           90           90 
   28000    231.60729   -11133.335   -10090.175   -11133.335            0    2261.7262    46.637014    20.111892    20.934954            0            0            0     19636.12    3149.1503      1503.65    2132.3783   -287.30421    1056.4068    831.49522    46.637014    20.111892    20.934954           90           90           90 
   28500     231.5806    -11134.17    -10091.13    -11134.17            0    2276.4352    46.708446    20.207708    20.807876            0            0            0    19639.943    2637.0293    1229.8942     2962.382   -130.70688    90.700224    31.608113    46.708446    20.207708    20.807876           90           90           90 
   29000    218.29045   -11097.998   -10114.817   -11097.998            0    2370.2572    46.692506    20.144583     20.91033            0            0            0    19668.279    1769.0793    2729.5162    2612.1762   -276.79007       752.41    259.70278    46.692506    20.144583     20.91033           90           90           90 
   29500    236.99913   -11126.218   -10058.773   -11126.218            0    3834.4704    46.873236     19.92479    20.840991            0            0            0    19464.222    3684.1188    4829.0319    2990.2607    264.76287   -78.477406    683.29753    46.873236     19.92479    20.840991           90           90           90 
   30000    234.92247   -11105.477   -10047.385   -11105.477            0    1965.1351    47.029527    20.078812    20.827414            0            0            0    19667.265    1881.3646     1683.133    2330.9078   -350.74712    12.642966    428.52654    47.029527    20.078812    20.827414           90           90           90 
   30500    223.40871   -11137.337   -10131.103   -11137.337            0    2689.5816    46.922715     20.02919     20.85068            0            0            0    19595.968    1627.3897    3246.2474    3195.1077    184.78551   -64.252162     351.4821    46.922715     20.02919     20.85068           90           90           90 
   31000    237.45102   -11103.009   -10033.528   -11103.009            0    3265.8807    46.714414    20.123545    20.790136            0            0            0    19543.967    4216.3962    1769.5582    3811.6879   -68.754131    111.56924    -523.6975    46.714414    20.123545    20.790136           90           90           90 
   31500    225.00869   -11094.462   -10081.022   -11094.462            0    2577.9455    46.591801    20.086895    20.924967            0            0            0    19583.354    2581.5178    2987.4331    2164.8856   -225.39617    376.23569   -126.52553    46.591801    20.086895    20.924967           90           90           90 
   32000    237.32865   -11106.416   -10037.487   -11106.416            0    3337.7981    46.752392    20.039439    20.800403            0            0            0    19487.726    3450.7778    3172.1101    3390.5066   -139.43854    -191.2147   -642.83138    46.752392    20.039439    20.800403           90           90           90 
   32500     236.9193   -11116.052   -10048.967   -11116.052            0    2076.9628    47.013868     20.16803    20.795653            0            0            0    19717.962    1017.5207     2435.618    2777.7498   -396.97248    445.45158    132.11135    47.013868     20.16803    20.795653           90           90           90 
   33000    236.67755   -11114.472   -10048.475   -11114.472            0    2958.3292    46.779341    20.060971     20.89246            0            0            0    19606.299    2384.4521    4423.3922    2067.1433   -325.22794     110.0526    454.32521    46.779341    20.060971     20.89246           90           90           90 
   33500    226.74165   -11137.809   -10116.564   -11137.809            0    4017.7489    46.854267    19.936196    20.841109            0            0            0    19467.593    5341.6107    3356.0962    3355.5399    8.2236723    772.60982    564.03961    46.854267    19.936196    20.841109           90           90           90 
   34000    231.40923    -11132.45   -10090.182    -11132.45            0    3658.4426    46.688549    20.109806    20.744849            0            0            0     19477.29    4335.2531    2617.1759    4022.8988   -263.01908   -611.00342    362.47103    46.688549    20.109806    20.744849           90           90           90 
   34500    223.30048   -11124.958   -10119.212   -11124.958            0    2892.6127    46.644401    20.003967     20.97254            0            0            0    19568.912    4034.3344    2562.5895    2080.9142    7.3916544   -52.679262    274.27955    46.644401    20.003967     20.97254           90           90           90 
   35000    221.04772   -11129.748   -10134.148   -11129.748            0    2737.1554    46.676816    20.023039    20.962087            0            0            0    19591.412    3709.0886    3131.9884    1370.3892   -575.73138   -379.72909   -651.39753    46.676816    20.023039    20.962087           90           90           90 
   35500    228.49531   -11086.203   -10057.059   -11086.203            0    2986.6433    47.107896    20.070102    20.750488            0            0            0    19618.762    2125.7927    3796.3969    3037.7402    111.18617   -494.40103    225.45062    47.107896    20.070102    20.750488           90           90           90 
   36000    229.41232   -11121.672   -10088.398   -11121.672            0    3818.2297    46.979816    19.893057    20.911192            0            0            0    19543.018    3443.3091    4679.5019    3331.8782     51.03771    1172.7802   -319.55181    46.979816    19.893057    20.911192           90           90           90 
   36500    231.55995   -11094.353   -10051.406   -11094.353            0     3411.589    46.675101    20.034847    20.920445            0            0            0    19563.305    3596.4784    4156.0196    2482.2691    215.66993   -273.19133   -157.63333    46.675101    20.034847    20.920445           90           90           90 
   37000     231.6507   -11121.025   -10077.669   -11121.025            0    3969.8112      46.6548    20.084542    20.810802            0            0            0    19500.561     3376.164    4388.0956    4145.1741    372.16009   -991.83835     -474.871      46.6548    20.084542    20.810802           90           90           90 
   37500    231.68619   -11130.388   -10086.873   -11130.388            0      3409.69    46.769868    20.147666    20.744493            0            0            0    19547.612    3840.8258    2809.7486    3578.4956    268.49196   -591.90511    270.02975    46.769868    20.147666    20.744493           90           90           90 
   38000    232.93679   -11088.793   -10039.645   -11088.793            0    3234.2299    46.550899    19.939275    21.081928            0            0            0    19568.059    3222.8681    3617.6943    2862.1273    10.457081   -461.27146    534.78901    46.550899    19.939275    21.081928           90           90           90 
   38500    232.88518   -11119.373   -10070.457   -11119.373            0    3889.4812    46.911502    20.068796    20.696956            0            0            0    19485.302    2691.0634    4870.0492    4107.3308   -372.38575    357.50429   -461.04848    46.911502    20.068796    20.696956           90           90           90 
   39000    232.61848   -11139.702   -10091.988   -11139.702            0    3574.6398    46.998503    19.981673     20.78483            0            0            0    19519.215    3194.0953    3231.7259    4298.0983    84.903488   -991.27276   -862.98268    46.998503    19.981673     20.78483           90           90           90 
   39500    233.12594   -11084.253   -10034.252   -11084.253            0    2426.8077    46.825005    19.988199    20.953623            0            0            0    19611.492    1771.2139    3562.7447    1946.4644    408.12729   -1142.9294    34.580582    46.825005    19.988199    20.953623           90           90           90 
   40000    228.44975   -11110.421   -10081.482   -11110.421            0     4315.687    46.713195    20.063255     20.77326            0            0            0    19469.089    4323.4639     4603.564    4020.0332   -403.07195    315.45379    1289.1482    46.713195    20.063255     20.77326           90           90           90 
   40500    233.10316   -11158.538   -10108.641   -11158.538            0    2813.4345    46.791549    20.022917    20.805859            0            0            0    19493.079    2649.7408    2841.0518    2949.5109    269.39529   -174.52079   -166.83426    46.791549    20.022917    20.805859           90           90           90 
   41000    230.31918   -11156.664   -10119.306   -11156.664            0    3569.5986      46.6293     19.92727    20.998832            0            0            0    19512.002    3760.7873     3707.692    3240.3165   -280.41052    367.41802    592.58681      46.6293     19.92727    20.998832           90           90           90 
   41500    231.17544   -11072.889   -10031.673   -11072.889            0    3445.0117    46.879723    20.123301    20.681636            0            0            0    19510.533     3365.246    2918.5197    4051.2693    82.264581    533.52689   -733.93248    46.879723    20.123301    20.681636           90           90           90 
   42000    230.63509    -11131.96   -10093.178    -11131.96            0     3287.773    46.767676    20.061756    20.780579            0            0            0    19497.205    3047.5015    3093.4289    3722.3885   -201.11674    655.70392     366.7257    46.767676    20.061756    20.780579           90           90           90 
   42500    226.45637   -11115.841    -10095.88   -11115.841            0    3144.9923    46.772907    19.927237    21.009209            0            0            0    19581.734    3282.3961    3750.8607      2401.72   -194.54008    338.52717    372.94256    46.772907    19.927237    21.009209           90           90           90 
   43000    231.85346    -11098.06   -10053.791    -11098.06            0    2797.3054    46.812345    20.127684    20.768338            0            0            0    19568.428    2787.9084    2906.5907    2697.4173   -77.640373   -84.155434    1189.3225    46.812345    20.127684    20.768338           90           90           90 
   43500    234.56038   -11099.352   -10042.892   -11099.352            0    2329.9996    47.296085    20.014948     20.80811            0            0            0    19697.553    1843.6694    2177.6582    2968.6713    118.66907   -37.363994   -184.85409    47.296085    20.014948     20.80811           90           90           90 
   44000     230.2075   -11122.229   -10085.374   -11122.229            0    2425.1482    46.622616      20.0653    20.923167            0            0            0    19573.555    1737.5252    2148.0518    3389.8676   -118.69342   -542.10159   -71.118832    46.622616      20.0653    20.923167           90           90           90 
   44500     226.6298   -11107.231    -10086.49   -11107.231            0    2381.2323    47.021765    19.977191    20.879041            0            0            0    19612.994    3318.2349    1565.2237    2260.2383   -172.93796    215.46221   -418.65602    47.021765    19.977191    20.879041           90           90           90 
   45000    225.40775   -11139.239   -10124.002   -11139.239            0    3414.9647    46.546749    20.209054    20.824686            0            0            0    19589.068    4373.7047    2787.7644     3083.425    65.470495    119.04875    262.82218    46.546749    20.209054    20.824686           90           90           90 
   45500    228.40055   -11113.812   -10085.095   -11113.812            0    2881.6717    46.841582    20.081317    20.806623            0            0            0    19571.556    2043.4609    2937.2291     3664.325   -282.89664   -193.00227    214.42956    46.841582    20.081317    20.806623           90           90           90 
   46000    230.98293   -11100.332   -10059.984   -11100.332            0    2748.6449    46.784097    20.050929    20.841597            0            0            0    19550.765    1978.4459    3465.0907    2802.3981    268.31283    847.73729    1037.8988    46.784097    20.050929    20.841597           90           90           90 
   46500     232.7087   -11128.967   -10080.846   -11128.967            0    3923.0673    46.930548    19.948668    20.833837            0            0            0    19504.678    3610.6081    4654.8281    3503.7657   -142.83695    369.63923   -118.56877    46.930548    19.948668    20.833837           90           90           90 
   47000    225.70979    -11129.93   -10113.332    -11129.93            0    2014.7465    47.088101    20.003435    20.906571            0            0            0    19692.396    3095.0681    1213.3113      1735.86  -0.27257453   0.22527169   -789.89185    47.088101    20.003435    20.906571           90           90           90 
   47500    235.34815   -11106.981   -10046.972   -11106.981            0    2107.4655     46.91393    20.073594    20.839515            0            0            0    19625.221     1569.788    2206.8785      2545.73    82.009008   -164.54062   -18.197484     46.91393    20.073594    20.839515           90           90           90 
   48000    228.87635   -11127.082   -10096.222   -11127.082            0    2911.9442    46.723157     20.01542    20.885946            0            0            0    19532.194    1929.0792    4076.2326    2730.5208    179.44839    -111.2641     -622.161    46.723157     20.01542    20.885946           90           90           90 
   48500    237.22724   -11146.305   -10077.833   -11146.305            0     3282.948    46.963689    20.128461    20.711021            0            0            0    19578.269    3951.1379    2239.5779    3658.1284   -521.88951   -983.78214   -346.56118    46.963689    20.128461    20.711021           90           90           90 
   49000    228.36113    -11087.68   -10059.141    -11087.68            0    3675.1535    46.781607    19.982098    20.917373            0            0            0    19553.448    2826.9353    5450.9022    2747.6232   -38.980068    121.96389    1149.4238    46.781607    19.982098    20.917373           90           90           90 
   49500     235.7075   -11097.522   -10035.895   -11097.522            0    3696.3137    46.594951     20.01878    20.902683            0            0            0    19497.481    4298.5545    3264.4999    3525.8867    336.72978   -494.75274    60.468424    46.594951     20.01878    20.902683           90           90           90 
   50000    238.08777   -11121.941   -10049.593   -11121.941            0    3333.0831    46.845507    20.109692    20.740231            0            0            0    19538.307    3342.7357    3010.7419    3645.7716   -565.86415    305.18232    853.05851    46.845507    20.109692    20.740231           90           90           90 
   50500    228.31502   -11126.879   -10098.548   -11126.879            0    2968.0903    46.712496    20.072258    20.887135            0            0            0    19584.306    3021.1883     2248.094    3634.9885    353.20438   -738.01099    219.01169    46.712496    20.072258    20.887135           90           90           90 
   51000    230.43557   -11113.833   -10075.951   -11113.833            0    2755.9854    46.782885    20.135633    20.878848            0            0            0    19667.938    2389.8051    2943.8759    2934.2753    51.237865   -12.692244   -167.56114    46.782885    20.135633    20.878848           90           90           90 
   51500    223.66015   -11087.338   -10079.972   -11087.338            0    2651.8718    46.877275    20.119301    20.685248            0            0            0    19509.043    2210.0356    2312.1433    3433.4363   -120.21856   -203.08882   -272.61307    46.877275    20.119301    20.685248           90           90           90 
   52000    228.65516   -11128.962   -10099.098   -11128.962            0    3383.1238    46.245751     20.08776    21.059844            0            0            0    19564.037    4088.9652    2885.2586    3175.1475   -332.04276    182.11718   -10.325615    46.245751     20.08776    21.059844           90           90           90 
   52500    236.03895   -11093.996   -10030.876   -11093.996            0    2843.8323    46.833675    20.111388    20.837874            0            0            0     19626.99    3106.3652    2367.7339    3057.3978   -183.45085    114.88611    459.98287    46.833675    20.111388    20.837874           90           90           90 
   53000    231.66571   -11109.756   -10066.333   -11109.756            0    2581.8944    46.709251    19.995652    20.897126            0            0            0    19517.538    2554.8014    2734.6342    2456.2477     216.3467    45.712436    266.88443    46.709251    19.995652    20.897126           90           90           90 
   53500    232.07552   -11113.863   -10068.594   -11113.863            0     3001.985    46.829133    19.985895    20.878661            0            0            0    19540.801    3236.1002    3250.1148    2519.7401   -51.579864    -514.8447    6.2485119    46.829133    19.985895    20.878661           90           90           90 
   54000    237.79636   -11115.346    -10044.31   -11115.346            0    2382.5611    46.940211    20.098416    20.879268            0            0            0        19698    2529.4795    2850.0475    1768.1563    -324.0657    744.88064    94.383137    46.940211    20.098416    20.879268           90           90           90 
   54500    224.73975   -11115.596   -10103.368   -11115.596            0    4438.4376    47.026155    19.915622    20.741408            0            0            0    19425.472    3696.0586    5125.9603     4493.294   -76.910111   -293.48339    1127.5827    47.026155    19.915622    20.741408           90           90           90 
   55000    227.34096   -11074.841   -10050.896   -11074.841            0    3541.7719    46.966091    20.066753    20.697041            0            0            0     19506.07    3614.6448    3701.7628     3308.908    142.97474   -403.86647    1.5486806    46.966091    20.066753    20.697041           90           90           90 
   55500    230.80352    -11141.67    -10102.13    -11141.67            0    2528.2083    46.669992    19.938894    21.073817            0            0            0    19610.198    2458.2968    3413.2064    1713.1218     184.3651    689.54099    136.52487    46.669992    19.938894    21.073817           90           90           90 
   56000    233.89816   -11072.813   -10019.334   -11072.813            0    3661.0238      46.8341    20.090351    20.772308            0            0            0    19544.945    3043.3001    3960.5859    3979.1856   -360.05697    34.381136     584.5788      46.8341    20.090351    20.772308           90           90           90 
   56500    232.70436   -11156.343   -10108.242   -11156.343            0    2217.9513    46.570298     20.15048    20.933834            0            0            0    19644.599    2017.9441    2389.7747    2246.1352    -360.0195   -124.65876   -221.36979    46.570298     20.15048    20.933834           90           90           90 
   57000    227.73454   -11126.232   -10100.515   -11126.232            0    2991.1982    46.584909    20.100768    20.907426            0            0            0    19577.555    4341.2534    1618.9616    3013.3795    76.196947    460.26784    -10.13753    46.584909    20.100768    20.907426           90           90           90 
   57500    230.79451    -11111.99   -10072.491    -11111.99            0    3971.8464    46.549617    20.121901    20.757673            0            0            0    19443.023    5384.9389     1615.186    4915.4142    -25.05991   -246.92294    316.88268    46.549617    20.121901    20.757673           90           90           90 
   58000    227.80804   -11111.984   -10085.935   -11111.984            0    2893.4122    46.982695    20.006477    20.846822            0            0            0    19595.141    2381.7168    3083.8848     3214.635       -286.2    -571.8409   -178.53267    46.982695    20.006477    20.846822           90           90           90 
   58500    238.90243   -11104.417   -10028.399   -11104.417            0    4199.3262    46.907253    19.898299    20.866041            0            0            0    19475.832     4610.709    3714.4014    4272.8682    77.882466   -412.84252   -356.04284    46.907253    19.898299    20.866041           90           90           90 
   59000    231.07537   -11118.707   -10077.943   -11118.707            0    2390.4237    47.145593    19.978564    20.794536            0            0            0      19586.4    1849.2283    3480.7067    1841.3361   -69.002399    35.881822    297.38388    47.145593    19.978564    20.794536           90           90           90 
   59500    229.62561   -11081.362   -10047.127   -11081.362            0    2540.4583    47.114873    19.938348    20.876102            0            0            0    19610.858       2477.2    2336.3225    2807.8524    -190.9443    406.21716   -603.57766    47.114873    19.938348    20.876102           90           90           90 
   60000    219.99165   -11119.715   -10128.871   -11119.715            0    3183.8731    46.576828    20.175746    20.880831            0            0            0    19622.182    3646.4876    2648.4091    3256.7227    59.158342     75.30896   -1548.0895    46.576828    20.175746    20.880831           90           90           90 
   60500     218.0071   -11094.087   -10112.182   -11094.087            0    2956.0562    46.680162    20.009529    20.907377            0            0            0    19528.495      3194.55    2555.6145    3118.0041    134.50853    596.13313    -671.1177    46.680162    20.009529    20.907377           90           90           90 
   61000    228.41283   -11128.519   -10099.747   -11128.519            0    3528.0058    46.858787    19.938627    20.817588            0            0            0     19449.87    3469.3786    3738.5603    3376.0785     143.0858   -697.82266    644.02467    46.858787    19.938627    20.817588           90           90           90 
   61500    234.11385   -11085.722   -10031.272   -11085.722            0    2767.8375    46.922784    20.130748    20.729713            0            0            0    19581.095    2836.6474     2591.984    2874.8812    234.57182   -434.88843   -287.19428    46.922784    20.130748    20.729713           90           90           90 
   62000    231.44351   -11104.651   -10062.229   -11104.651            0    1913.2327     46.70501    19.975617    21.116049            0            0            0    19700.458    2730.1031    1624.5743    1385.0206    53.781422    340.59172    303.12536     46.70501    19.975617    21.116049           90           90           90 
   62500    220.80703   -11117.869   -10123.353   -11117.869            0    2413.6252    46.711165    20.157993     20.82417            0            0            0    19608.108    1914.0786    2523.2107    2803.5864   -377.98111    532.72065   -43.400535    46.711165    20.157993     20.82417           90           90           90 
   63000    238.39865   -11082.969   -10009.221   -11082.969            0    3441.5938    46.997009    20.012757    20.779119            0            0            0    19543.587    3345.0696    3594.5967     3385.115   -159.36681    859.73035   -214.81248    46.997009    20.012757    20.779119           90           90           90 
   63500    222.37483   -11131.904   -10130.327   -11131.904            0    2898.0067    46.435631    20.094997    21.011496            0            0            0    19606.329    4133.8214    2405.4915    2154.7073    2.0935236    659.74309    1084.4832    46.435631    20.094997    21.011496           90           90           90 
   64000    235.54692   -11104.656   -10043.751   -11104.656            0    3181.0793    46.884001    19.969834    20.926939            0            0            0    19593.175    3447.1362    3388.4807    2707.6212    7.1778028   -483.29939   -535.20243    46.884001    19.969834    20.926939           90           90           90 
   64500    227.39025   -11130.888   -10106.721   -11130.888            0    3051.0818    46.957441     20.11103    20.681045            0            0            0    19530.404    2691.5543    2178.8512    4282.8399    546.84465    327.76134    806.57473    46.957441     20.11103    20.681045           90           90           90 
   65000    223.10723   -11138.862   -10133.986   -11138.862            0      3238.61    46.845776    20.059869    20.842813            0            0            0    19586.411     3279.663    3750.1108    2686.0564   -215.27664    473.50155    428.75052    46.845776    20.059869    20.842813           90           90           90 
   65500    230.43702   -11129.411   -10091.521   -11129.411            0    3164.3194    46.714388    19.930252    20.948414            0            0            0    19503.592    3153.3563    3953.8635    2385.7386   -148.20029   -223.15554    1.9292713    46.714388    19.930252    20.948414           90           90           90 
   66000    231.13149   -11064.644   -10023.627   -11064.644            0    3406.9067    47.148029    19.976778    20.753189            0            0            0    19546.717    3161.9178    3198.1411    3860.6612    148.04453   -151.99921   -21.909697    47.148029    19.976778    20.753189           90           90           90 
   66500    233.06668   -11073.056   -10023.323   -11073.056            0    2795.9427    46.755143    20.035876    20.931218            0            0            0    19607.952    2010.3761    2742.4776    3634.9744    173.49571    -781.4604    -536.3278    46.755143    20.035876    20.931218           90           90           90 
   67000    230.03576   -11145.049   -10108.968   -11145.049            0    3494.6536    46.853294     19.96159    20.861442            0            0            0    19511.003    4187.6462    3581.5055     2714.809    208.15714    210.48389    1005.9352    46.853294     19.96159    20.861442           90           90           90 
   67500    224.36871   -11089.752   -10079.194   -11089.752            0    2391.5127    46.830847    20.215956    20.729528            0            0            0    19625.274    2508.2458    1947.0348    2719.2576   -50.016991   -447.17234    951.60765    46.830847    20.215956    20.729528           90           90           90 
   68000    230.01969   -11145.608   -10109.599   -11145.608            0    2982.7997     46.55697    20.122221    20.912748            0            0            0    19591.682    3034.4847    2622.0906    3291.8239   -380.97242    360.49239   -213.72689     46.55697    20.122221    20.912748           90           90           90 
   68500    232.22705   -11103.872   -10057.921   -11103.872            0    3641.8216    46.851528     19.89484    20.939169            0            0            0    19517.476    2354.8148    4937.9665    3632.6834    265.68595   -216.04309    1488.4777    46.851528     19.89484    20.939169           90           90           90 
   69000    226.39617   -11128.468   -10108.779   -11128.468            0    2948.1052     47.09088    20.057493     20.71901            0            0            0    19569.624    2482.3119    2375.8241    3986.1797    38.724942    358.10784   -618.74112     47.09088    20.057493     20.71901           90           90           90 
   69500    223.26244    -11096.24   -10090.665    -11096.24            0       3100.5    46.898626    20.033831    20.737338            0            0            0    19483.955    3242.2292    2266.9515    3792.3193   -153.92775   -906.30427   -678.87968    46.898626    20.033831    20.737338           90           90           90 
   70000    231.65423    -11137.96   -10094.588    -11137.96            0    3335.8256    46.530658    19.976929     21.05666            0            0            0        19573    2596.4486     4413.628    2997.4002    -466.3886    4.4537131      121.637    46.530658    19.976929     21.05666           90           90           90 
   70500    228.73485    -11131.43   -10101.208    -11131.43            0    2487.8731     46.88167    20.057964    20.870273            0            0            0    19625.379    2531.2327    2477.8026     2454.584   -429.60456   -281.23278   -12.228168     46.88167    20.057964    20.870273           90           90           90 
   71000    229.03494   -11111.897   -10080.323   -11111.897            0    3266.3415    46.966012    20.110302    20.741901            0            0            0     19590.74    2750.3051    3610.8169    3437.9026    171.86339   -344.91199    674.76802    46.966012    20.110302    20.741901           90           90           90 
   71500    228.00365   -11106.417   -10079.487   -11106.417            0    3594.6147    46.452672    20.012766    21.014983            0            0            0    19536.504    4528.7796     2976.278    3278.7866   -190.26063   -64.663716    419.94221    46.452672    20.012766    21.014983           90           90           90 
   72000    239.05812   -11095.525   -10018.806   -11095.525            0    3572.1293    46.659594    20.148994    20.812034            0            0            0    19566.306    4868.5082    2197.5534    3650.3264   -92.979678   -762.17996   -1418.5399    46.659594    20.148994    20.812034           90           90           90 
   72500    221.58373   -11142.554    -10144.54   -11142.554            0    3278.6893    46.777809    20.123474    20.789484            0            0            0    19569.807    4115.5724    2526.5176     3193.978    145.34509    254.90571   -66.044072    46.777809    20.123474    20.789484           90           90           90 
   73000    229.01408   -11144.767   -10113.286   -11144.767            0    4526.9969    46.471132    19.997428    20.867568            0            0            0    19392.296    5207.4832    4101.2172    4272.2903   -152.13368    179.54098    257.91946    46.471132    19.997428    20.867568           90           90           90 
   73500    237.51253   -11089.235   -10019.477   -11089.235            0    2477.6839    46.972706    20.031049    20.914432            0            0            0    19678.652    3039.1683    2184.7208    2209.1625    -95.83344   -57.105557   -46.728589    46.972706    20.031049    20.914432           90           90           90 
   74000    227.53081       -11079     -10054.2       -11079            0    2925.1012    47.022641    20.053086    20.751222            0            0            0    19567.345    1963.5698    3712.9175    3098.8162   -545.25148    17.545548   -623.39754    47.022641    20.053086    20.751222           90           90           90 
   74500    237.81722   -11109.118   -10037.988   -11109.118            0    3770.1153    46.840194    19.932042    20.910105            0            0            0    19522.106    3694.9461    3772.3579     3843.042   -466.02252   -418.89309   -329.53328    46.840194    19.932042    20.910105           90           90           90 
   75000    227.39349   -11056.893   -10032.712   -11056.893            0    2669.9602    46.703941    20.085853     20.94588            0            0            0    19649.089     2693.427    2779.3377    2537.1158    72.838843   -478.52707     315.5767    46.703941    20.085853     20.94588           90           90           90 
   75500     227.1226   -11084.701    -10061.74   -11084.701            0    4085.0188    46.759819      20.0753    20.775415            0            0            0    19502.243     3532.918     4216.118    4506.0204    440.84949   -691.46715    846.71498    46.759819      20.0753    20.775415           90           90           90 
   76000    226.70624     -11124.2   -10103.114     -11124.2            0     2292.251    46.746414    20.167885    20.835145            0            0            0    19642.881    2668.4732    1899.0807     2309.199    99.380144    410.15032    168.50639    46.746414    20.167885    20.835145           90           90           90 
   76500    223.34368   -11147.406   -10141.465   -11147.406            0    3462.4764    46.410664    20.039432    20.916338            0            0            0    19453.101    4617.4854    2021.0182    3748.9258   -88.135279    49.496378    305.39476    46.410664    20.039432    20.916338           90           90           90 
   77000    224.24232   -11131.999    -10122.01   -11131.999            0    3348.3476    46.808578    20.179222    20.688827            0            0            0    19541.852    3397.0928    2496.8975    4151.0524    -36.17255    495.83549    115.20333    46.808578    20.179222    20.688827           90           90           90 
   77500    228.73042   -11097.254   -10067.051   -11097.254            0    3250.8704    46.966104    19.951952    20.919385            0            0            0    19602.834    2561.3163    3517.3374    3673.9574    413.50065   -128.36239    206.79203    46.966104    19.951952    20.919385           90           90           90 
   78000    231.57175   -11055.775   -10012.775   -11055.775            0    2745.4023    46.639566     20.06284    20.870594            0            0            0    19529.077    1405.5236    4492.3053     2338.378    -219.7143   -150.94342   -224.43847    46.639566     20.06284    20.870594           90           90           90 
   78500    232.17004   -11155.002   -10109.308   -11155.002            0    4098.6501    47.051424    19.989842    20.626236            0            0            0    19400.017    3025.0395    4884.7493    4386.1617   -187.61964    295.90889     273.8079    47.051424    19.989842    20.626236           90           90           90 
   79000    221.41326   -11118.282   -10121.036   -11118.282            0    1864.1365    46.748586    20.079541    20.908777            0            0            0    19626.862    1613.0972    1838.6716    2140.6406    36.942204   -571.15171   -702.02916    46.748586    20.079541    20.908777           90           90           90 
   79500    234.31528    -11122.91   -10067.553    -11122.91            0      3248.62    46.824994    19.858359    20.961932            0            0            0     19491.82    2616.3287    4726.3839    2403.1474   -48.189447   -664.82063    578.10333    46.824994    19.858359    20.961932           90           90           90 
   80000    224.15053    -11103.81   -10094.235    -11103.81            0    2963.2999    47.010106    20.069687    20.704308            0            0            0    19534.061    1848.9873    3775.3864     3265.526   -102.30955   -524.62297   -67.852427    47.010106    20.069687    20.704308           90           90           90 
   80500    231.74192   -11120.782   -10077.016   -11120.782            0    3405.3333    46.844647    20.007631    20.890996            0            0            0    19580.095    4477.1387     2542.316    3196.5451   -399.50507    195.87006   -14.210591    46.844647    20.007631    20.890996           90           90           90 
   81000    230.31672   -11092.527   -10055.179   -11092.527            0    4189.5921    46.415534    20.060042     20.83486            0            0            0    19399.288    4743.7082    3371.0772    4453.9908    541.90625    337.11347    370.33081    46.415534    20.060042     20.83486           90           90           90 
   81500    227.37171   -11111.558   -10087.475   -11111.558            0    4167.0372    46.800739    19.997442    20.748033            0            0            0    19417.982    3517.2412    4813.6427    4170.2279    34.141064    -577.4951    178.08871    46.800739    19.997442    20.748033           90           90           90 
   82000     232.7986   -11122.385    -10073.86   -11122.385            0    2833.2078    46.834088    20.112745    20.836697            0            0            0    19627.379    2454.0904    3637.4166    2408.1163    90.820115    366.73008    87.021713    46.834088    20.112745    20.836697           90           90           90 
   82500    234.62031   -11060.155   -10003.424   -11060.155            0    2699.5503    46.884236     20.00769    20.926292            0            0            0     19629.81    2630.0284    2901.3423    2567.2803   -210.76583     112.6604    98.090798    46.884236     20.00769    20.926292           90           90           90 
   83000    226.60278    -11122.79    -10102.17    -11122.79            0    3019.2667      46.7643     20.11042    20.793035            0            0            0    19554.804    2567.9852    4160.4476    2329.3671    397.44286   -461.29032    377.92549      46.7643     20.11042    20.793035           90           90           90 
   83500    234.67967   -11124.271   -10067.273   -11124.271            0    2213.5328    46.838992    19.989115    20.966032            0            0            0    19629.866     3265.997    1214.2627    2160.3387    -132.7008     379.6146    11.071029    46.838992    19.989115    20.966032           90           90           90 
   84000    241.01433   -11113.874   -10028.344   -11113.874            0    4402.3006    46.808226    19.950148    20.799033            0            0            0    19422.782    3678.2456    5252.4327    4276.2236   -434.37673       303.57   -473.70818    46.808226    19.950148    20.799033           90           90           90 
   84500    227.31681   -11125.174   -10101.338   -11125.174            0    3109.4058    46.919661    20.131789    20.738572            0            0            0    19589.172    1869.8837    3745.4072    3712.9264   -675.00992    167.39631    93.927168    46.919661    20.131789    20.738572           90           90           90 
   85000    233.66725   -11138.991   -10086.553   -11138.991            0    2789.7244    46.651319    20.022991    20.953076            0            0            0    19572.246     3247.242    3044.8793     2077.052   -154.85093   -493.04851   -382.04288    46.651319    20.022991    20.953076           90           90           90 
   85500    236.98025   -11084.667   -10017.307   -11084.667            0    3430.4099    46.554519    20.149847    20.902276            0            0            0    19607.724    4005.3973    3418.5164    2867.3161    17.812983    -353.7837    102.18261    46.554519    20.149847    20.902276           90           90           90 
   86000    230.02363   -11091.479   -10055.451   -11091.479            0    1390.5502    46.945816    20.142379    20.789312            0            0            0    19658.382    1154.5762    2060.1102    956.96421   -141.60281    648.62326   -70.584868    46.945816    20.142379    20.789312           90           90           90 
   86500     227.7472    -11134.79   -10109.016    -11134.79            0    3493.3908    46.703764    20.009914     20.89994            0            0            0    19531.795    3813.4718    3313.2062    3353.4942   -273.84359    379.48683   -78.359849    46.703764    20.009914     20.89994           90           90           90 
   87000    230.00462   -11120.672    -10084.73   -11120.672            0    3498.1992    46.641642    20.062981    20.894404            0            0            0    19552.365     4153.483    3364.1904    2976.9241    557.94162   -224.82124    687.65001    46.641642    20.062981    20.894404           90           90           90 
   87500    226.09278   -11074.898   -10056.575   -11074.898            0    3928.1229    46.801802    20.272432    20.638424            0            0            0    19581.454    5026.1447    2364.7789     4393.445    302.13913    728.68145    356.69788    46.801802    20.272432    20.638424           90           90           90 
   88000    229.52977   -11072.289   -10038.486   -11072.289            0    3307.9095    46.803133    19.952661    20.984069            0            0            0    19595.911    4415.0447    2677.7711    2830.9129   -99.658633   -756.39034   -142.66591    46.803133    19.952661    20.984069           90           90           90 
   88500    232.35609   -11114.894   -10068.361   -11114.894            0     2975.976     46.80486     20.05264     20.85343            0            0            0    19572.217    4274.0239     1949.246    2704.6582     4.517232    105.33061    15.469966     46.80486     20.05264     20.85343           90           90           90 
   89000    224.28322   -11143.175   -10133.002   -11143.175            0    2429.8156    47.156411    19.991076    20.793163            0            0            0    19601.869    2343.6803    2782.1163    2163.6501    426.26755   -238.12286    1.6762745    47.156411    19.991076    20.793163           90           90           90 
   89500    224.46344   -11101.308   -10090.323   -11101.308            0    3368.0646    46.519414    20.062319    20.901044            0            0            0     19506.68     4381.729    2615.8994    3106.5654     75.68221   -290.35174   -370.70122    46.519414    20.062319    20.901044           90           90           90 
   90000    223.80361   -11104.565   -10096.552   -11104.565            0    2556.1883    46.985754    20.020444     20.90803            0            0            0    19667.675    2806.2519    2936.3636    1925.9495   -476.65821   -1351.1959    23.968217    46.985754    20.020444     20.90803           90           90           90 
   90500    232.78207   -11094.901   -10046.449   -11094.901            0    3543.9648    46.736194    20.042023     20.79065            0            0            0    19474.349    3450.4242    3172.3616    4009.1084    -269.1192    1316.9097    431.67558    46.736194    20.042023     20.79065           90           90           90 
   91000    226.75755   -11140.964   -10119.647   -11140.964            0    2093.0749    46.709321    20.091134    20.954886            0            0            0    19664.971    2412.6967    1575.5787    2290.9493    21.121571    81.063331    558.28508    46.709321    20.091134    20.954886           90           90           90 
   91500     237.4573   -11157.467   -10087.958   -11157.467            0    2919.7705    46.670111    20.123712    20.880183            0            0            0    19610.164    2780.1149    2414.0513    3565.1454   -95.977757    202.33638   -861.64149    46.670111    20.123712    20.880183           90           90           90 
   92000    218.38475   -11082.265   -10098.659   -11082.265            0    3191.8753    46.924878    20.079216    20.672361            0            0            0    19477.803    3379.4552    2952.3641    3243.8066   -34.326498    418.33378   -912.35556    46.924878    20.079216    20.672361           90           90           90 
   92500    227.13078   -11121.428    -10098.43   -11121.428            0    4027.7815    46.639375    20.005243     20.99459            0            0            0    19588.624    4419.2483    3811.6455    3852.4507    -424.4516    426.37564    84.171284    46.639375    20.005243     20.99459           90           90           90 
   93000    233.48507   -11142.121   -10090.503   -11142.121            0    3032.5146    46.697171    20.090117    20.870369            0            0            0    19579.571    3917.7573    2046.9505     3132.836    356.97784   -184.28453   -408.40414    46.697171    20.090117    20.870369           90           90           90 
   93500    232.53782   -11142.936   -10095.584   -11142.936            0    4091.3251    46.804897    19.970903    20.733622            0            0            0    19380.465     3686.417    4007.1601    4580.3983   -65.020075    198.80818    93.677183    46.804897    19.970903    20.733622           90           90           90 
   94000    221.37505    -11084.63   -10087.556    -11084.63            0    2465.2109    46.779396    20.077006    20.879138            0            0            0    19609.482    1557.7054    2938.7791    2899.1482   -92.686323    1453.6559   -913.44019    46.779396    20.077006    20.879138           90           90           90 
   94500    236.76264   -11137.555   -10071.176   -11137.555            0    2761.1374    47.085073    19.918672    20.940671            0            0            0    19639.672    2351.0072    2817.7562    3114.6489   -61.794971    614.03178    583.74198    47.085073    19.918672    20.940671           90           90           90 
   95000    223.93783   -11104.913   -10096.296   -11104.913            0    2563.2732    46.842007    20.098007    20.801988            0            0            0    19583.636    1976.3136     3900.584     1812.922   -341.98515    182.72948   -295.45643    46.842007    20.098007    20.801988           90           90           90 
   95500    230.84813   -11129.328   -10089.587   -11129.328            0    3969.8792    47.000958    19.965307    20.784634            0            0            0    19504.062    3793.4156    3218.8046    4897.4174    66.096979    66.879494    255.37287    47.000958    19.965307    20.784634           90           90           90 
   96000    223.46835   -11096.679   -10090.177   -11096.679            0    2053.5741    46.587883    20.175924    20.928961            0            0            0    19672.252    2761.7285    2108.9135    1290.0804    169.14615    327.22869   -449.68995    46.587883    20.175924    20.928961           90           90           90 
   96500     225.1429   -11111.902   -10097.857   -11111.902            0    3219.8619    46.546838    20.102167     20.86829            0            0            0    19526.299    4050.7143    2055.1905    3553.6809   -384.45152    1380.5255    194.15994    46.546838    20.102167     20.86829           90           90           90 
   97000    232.50616   -11131.255   -10084.046   -11131.255            0    2318.9115    46.766064    20.077212    20.854864            0            0            0    19581.303    1956.9713    2690.7026    2309.0608   -173.73153   -39.196842    289.12417    46.766064    20.077212    20.854864           90           90           90 
   97500    228.35141   -11118.626   -10090.131   -11118.626            0    2525.1178    46.923894    20.086623    20.816585            0            0            0    19620.518    3532.3804    1514.8673    2528.1056   -56.551927    -18.13896    888.00245    46.923894    20.086623    20.816585           90           90           90 
   98000    225.39698    -11131.29   -10116.101    -11131.29            0    3247.4179    46.980754    19.882835    20.981059            0            0            0     19598.63    3687.7966    3652.3967    2402.0604   -198.60681    533.66585   -817.69761    46.980754    19.882835    20.981059           90           90           90 
   98500    222.87303   -11134.683   -10130.862   -11134.683            0    2079.9104    46.858147    20.073287    20.840507            0            0            0     19602.52     1266.671    2397.0082     2576.052   -16.400941    256.65491    350.89221    46.858147    20.073287    20.840507           90           90           90 
   99000    232.88161   -11093.535   -10044.636   -11093.535            0    3472.3023    47.047776    20.013986    20.786912            0            0            0    19573.238    3153.1029     4378.041    2885.7629    128.35438    630.06921    336.59022    47.047776    20.013986    20.786912           90           90           90 
   99500    236.65227   -11097.388   -10031.505   -11097.388            0    3331.3374    46.928143    19.953667    20.951005            0            0            0    19618.281    3173.9691    3713.8816    3106.1613   -98.851624    424.22532    374.84376    46.928143    19.953667    20.951005           90           90           90 
  100000    228.70528   -11131.463   -10101.373   -11131.463            0    2689.6978    46.598948     20.04416    20.868484            0            0            0    19491.931    1667.1063    3475.3343    2926.6527    -311.9536    550.11908    300.88257    46.598948     20.04416    20.868484           90           90           90 
  100500    230.19863   -11152.515   -10115.699   -11152.515            0    1949.3848    47.103005    20.038278    20.779088            0            0            0    19612.615      1750.87    1777.1876    2320.0967   -60.518828    870.38561    535.31189    47.103005    20.038278    20.779088           90           90           90 
  101000    223.48567   -11094.931    -10088.35   -11094.931            0     1300.095    46.741831    20.118591    20.914495            0            0            0    19667.568    771.52692    1768.3753    1360.3826    22.418056    55.554016    668.89975    46.741831    20.118591    20.914495           90           90           90 
  101500    230.77196   -11142.713   -10103.315   -11142.713            0    3402.3378    46.829355    19.983004    20.895474            0            0            0    19553.801     4233.782     2887.608    3085.6234   -25.282087   -357.79439    710.02135    46.829355    19.983004    20.895474           90           90           90 
  102000    229.96967   -11065.041   -10029.256   -11065.041            0    3033.2434    46.859347    20.146069    20.842362            0            0            0    19675.849    2575.4191    3282.0849    3242.2262   -183.90307   -397.17039    1280.4613    46.859347    20.146069    20.842362           90           90           90 
  102500    230.68255   -11145.863   -10106.868   -11145.863            0      3715.21    46.470994     20.07095     20.79224            0            0            0    19393.276    3962.6838    4020.3355    3162.6106   -766.76296   -372.59277    759.78018    46.470994     20.07095     20.79224           90           90           90 
  103000    220.23201    -11096.11   -10104.184    -11096.11            0    3002.3064    46.833624    19.951016    20.979467            0            0            0    19602.761    2747.3963    3051.0192    3208.5038    -366.5777   -338.02157   -57.497856    46.833624    19.951016    20.979467           90           90           90 
  103500    232.32235   -11126.714   -10080.333   -11126.714            0    3042.0553    46.848573    20.074137    20.828043            0            0            0    19587.622    3956.3334    1750.1132    3419.7193   -254.07474    249.09282    740.05221    46.848573    20.074137    20.828043           90           90           90 
  104000    232.90723    -11133.12   -10084.105    -11133.12            0    2831.0901    46.911716    20.040931    20.827511            0            0            0    19581.078    2251.7684    3155.3952    3086.1068     34.06892    395.02462   -192.56117    46.911716    20.040931    20.827511           90           90           90 
  104500    219.77379   -11115.782    -10125.92   -11115.782            0     2725.809     46.72367    20.113788    20.784782            0            0            0     19533.33    2693.3218    2675.5592     2808.546   -238.06076   -564.57948   -270.04303     46.72367    20.113788    20.784782           90           90           90 
  105000    236.11338   -11113.682   -10050.226   -11113.682            0    4375.5804    46.618781    19.859447    20.999285            0            0            0    19441.625    4446.5408    4801.8528    3878.3477   -96.153046   -427.54105    99.199279    46.618781    19.859447    20.999285           90           90           90 
  105500    240.41519   -11090.906   -10008.075   -11090.906            0     2925.223    46.827258    20.097188    20.810661            0            0            0    19584.835    2962.1569    2762.5898    3050.9224   -58.026504    893.72094    259.97134    46.827258    20.097188    20.810661           90           90           90 
  106000    234.86631   -11151.133   -10093.295   -11151.133            0    1490.9192    47.019496    20.165916    20.801905            0            0            0    19724.183    1624.8707    1076.0064    1771.8804   -54.238339     -135.792   -130.81301    47.019496    20.165916    20.801905           90           90           90 
  106500    230.29734   -11109.562   -10072.302   -11109.562            0    3158.5996    46.648046    19.966429    21.076817            0            0            0    19630.841    3308.0351      2983.87    3183.8936   -273.66021    246.63035   -476.40489    46.648046    19.966429    21.076817           90           90           90 
  107000    229.37909    -11108.76   -10075.636    -11108.76            0    3860.9386    46.790047    20.041561    20.806311            0            0            0    19511.027    4285.5454    3533.0581    3764.2122   -184.28102    155.26676    759.75527    46.790047    20.041561    20.806311           90           90           90 
  107500     239.2177   -11110.127    -10032.69   -11110.127            0    3733.1077    46.947585    20.002869    20.787254            0            0            0    19521.028    4119.9731    3347.8771    3731.4728   -143.05467    4.1731713     979.1466    46.947585    20.002869    20.787254           90           90           90 
  108000    228.44014   -11111.734   -10082.838   -11111.734            0    2902.0871    46.835614    20.106209    20.908408            0            0            0    19689.168    2780.9013    2396.1052    3529.2547    24.762236   -394.72341    648.20995    46.835614    20.106209    20.908408           90           90           90 
  108500    236.64143     -11129.5   -10063.666     -11129.5            0    2442.8629    46.674734    20.086472    20.829871            0            0            0    19528.645     2802.153    2042.9441    2483.4915   -152.83021    42.947472   -62.461503    46.674734    20.086472    20.829871           90           90           90 
  109000     228.0526    -11142.04    -10114.89    -11142.04            0    2445.7906    46.727289    20.087059    20.850219            0            0            0    19570.304    2802.4563    3000.0491    1534.8664   -35.845025    491.93446   -229.60919    46.727289    20.087059    20.850219           90           90           90 
  109500     228.0917   -11151.834   -10124.508   -11151.834            0    3549.7179    46.706616    20.048504    20.838198            0            0            0    19512.843    4292.8302     3082.298    3274.0253    291.13616    -94.23245   -138.22854    46.706616    20.048504    20.838198           90           90           90 
  110000    234.90025   -11143.388   -10085.397   -11143.388            0    2580.5212    46.828786    20.045959    20.872629            0            0            0     19593.72    2693.6366     2864.562    2183.3651   -91.006012   -263.94262   -463.33698    46.828786    20.045959    20.872629           90           90           90 
  110500    231.41815   -11148.665   -10106.357   -11148.665            0    4100.0866    46.656881    19.987097    20.893838            0            0            0    19484.248    4160.0044    4528.6145    3611.6408     95.63169    92.318816   -59.631777    46.656881    19.987097    20.893838           90           90           90 
  111000    228.31877   -11115.628   -10087.279   -11115.628            0    3133.3298    46.908743    20.057337    20.760604            0            0            0    19532.915    2993.0839    3725.1548    2681.7507    92.979375   -800.00418    179.61114    46.908743    20.057337    20.760604           90           90           90 
  111500    230.67003   -11107.847   -10068.909   -11107.847            0    2185.5715    46.870044    20.045967    20.970937            0            0            0    19703.357    1392.3762    3233.4232    1930.9152   -458.86222    355.84696     318.5317    46.870044    20.045967    20.970937           90           90           90 
  112000    233.01893   -11149.306   -10099.788   -11149.306            0    3383.3561    46.495901    20.063553    20.853027            0            0            0    19453.226    2336.8289    4575.2622    3237.9773   -311.61835    341.80937    92.217903    46.495901    20.063553    20.853027           90           90           90 
  112500    228.21128   -11122.154   -10094.289   -11122.154            0    2467.4238    46.981739    20.117822    20.777946            0            0            0    19638.697    3285.7469    1733.1267    2383.3979   -77.356335    35.687718   -841.23539    46.981739    20.117822    20.777946           90           90           90 
  113000    229.74997   -11092.794   -10057.999   -11092.794            0    2802.5522    46.674748    19.969016    21.024137            0            0            0    19595.521    4281.6273    1997.5367    2128.4927    106.46625    250.53509   -549.60614    46.674748    19.969016    21.024137           90           90           90 
  113500    230.76419   -11120.337   -10080.974   -11120.337            0    3019.1471    46.596927    20.155487    20.768278            0            0            0    19505.229    3364.9789    2333.6427    3358.8197    424.18598   -203.38483   -125.67788    46.596927    20.155487    20.768278           90           90           90 
  114000    238.52694   -11119.569   -10045.242   -11119.569            0    2695.0011    46.945736    20.147338    20.689235            0            0            0    19568.533    2958.6094    2009.9662    3116.4278   -162.48077   -854.14583   -217.77515    46.945736    20.147338    20.689235           90           90           90 
  114500    236.25646   -11134.257   -10070.157   -11134.257            0    3340.0441    46.576192    20.098341    20.941684            0            0            0    19603.598    3160.5995    3864.2513    2995.2816   -461.79949   -360.36912    869.49337    46.576192    20.098341    20.941684           90           90           90 
  115000     239.0069   -11105.614   -10029.126   -11105.614            0    2743.8296    46.918452    19.947803    20.847098            0            0            0    19511.216    1319.0767    4169.8591    2742.5529    42.235223    -399.7998    474.74329    46.918452    19.947803    20.847098           90           90           90 
  115500    232.28087   -11120.347   -10074.153   -11120.347            0    2310.8803    46.795818    20.122311    20.747334            0            0            0     19536.52    3131.9237    1307.7205    2492.9968     53.12229   -493.46382   -88.211662    46.795818    20.122311    20.747334           90           90           90 
  116000    228.07714   -11153.593   -10126.332   -11153.593            0    3831.5578    46.647227    19.992181    20.876907            0            0            0    19469.381    4386.0116    2595.5981    4513.0636   -144.35726    832.43873   -222.02019    46.647227    19.992181    20.876907           90           90           90 
  116500    225.57591   -11057.939   -10041.944   -11057.939            0    3129.1228    46.616298    20.130496    20.800404            0            0            0    19519.291    3647.1444    2689.6727    3050.5513   -347.15606   -1064.0301   -22.363584    46.616298    20.130496    20.800404           90           90           90 
  117000    227.52784   -11111.516    -10086.73   -11111.516            0    3186.9434    46.799147    20.094847    20.797006            0            0            0    19557.956    3118.1346    2439.1267    4003.5688   -273.89839   -899.02231    904.36293    46.799147    20.094847    20.797006           90           90           90 
  117500    229.80662   -11147.881   -10112.831   -11147.881            0    2209.5527     46.67859    20.075534    20.878504            0            0            0    19565.197    2373.0477    2923.0018    1332.6085   -387.20715    -93.39822     470.3716     46.67859    20.075534    20.878504           90           90           90 
  118000    235.99521   -11167.827   -10104.904   -11167.827            0    4336.0642    46.915744    19.928321    20.767873            0            0            0    19416.965     4669.713    4780.2252    3558.2544    354.16089    953.23847   -441.43551    46.915744    19.928321    20.767873           90           90           90 
  118500    226.02179   -11105.387   -10087.384   -11105.387            0    3496.7298    46.777039    20.003217        20.92            0            0            0    19574.661    4576.2175    2508.0288    3405.9429    45.254369   -405.86266   -226.47324    46.777039    20.003217        20.92           90           90           90 
  119000    232.72914   -11097.326   -10049.113   -11097.326            0    1508.9169    47.243188    19.932667    20.938963            0            0            0     19717.86      600.569    2393.4725    1532.7093    156.13089   -291.39367    696.10992    47.243188    19.932667    20.938963           90           90           90 
  119500    229.96716    -11104.11   -10068.337    -11104.11            0    3043.5019    46.651558    20.122968    20.796683            0            0            0    19523.257    2573.7529    3436.5068     3120.246   -765.46496    181.58439    530.46366    46.651558    20.122968    20.796683           90           90           90 
  120000    237.01144   -11113.853   -10046.352   -11113.853            0    3467.2313    46.782403    19.961395     20.82751            0            0            0    19449.604    3141.2086    3546.9658    3713.5195    185.33061   -247.44405    549.34981    46.782403    19.961395     20.82751           90           90           90 
  120500    232.34945   -11078.686   -10032.183   -11078.686            0    1892.1185    46.728031    20.080542    21.004422            0            0            0    19708.957     1249.476    2188.1076    2238.7719    29.596174    862.26142    -326.9745    46.728031    20.080542    21.004422           90           90           90 
  121000    228.58828   -11108.197   -10078.635   -11108.197            0    2612.3081    47.184328    20.026371    20.732045            0            0            0    19590.348    1832.1925    2900.1928    3104.5391   -214.70513   -234.49155    -569.7087    47.184328    20.026371    20.732045           90           90           90 
  121500    234.11318   -11166.794   -10112.348   -11166.794            0    2689.1091    46.908674    20.082938    20.846502            0            0            0    19638.739    1561.4155    3347.8041    3158.1076      -111.22    210.27128    670.18998    46.908674    20.082938    20.846502           90           90           90 
  122000    227.65994   -11095.455   -10070.074   -11095.455            0    2704.3216    46.829048     19.98541    20.991172            0            0            0     19645.59    2957.5221    3279.1386    1876.3041   -372.02065    582.28974    779.02322    46.829048     19.98541    20.991172           90           90           90 
  122500    224.97457   -11085.489   -10072.202   -11085.489            0     1437.704     47.00342    20.003847    20.959846            0            0            0    19707.479    1431.1678    2047.6481    834.29618    95.958146   -169.91843    24.731569     47.00342    20.003847    20.959846           90           90           90 
  123000    227.76456   -11150.465   -10124.612   -11150.465            0    2451.9729    46.815615    20.166661    20.716429            0            0            0    19558.683    2084.8057    2023.3567    3247.7563   -52.498313    500.21884   -166.13471    46.815615    20.166661    20.716429           90           90           90 
  123500    226.32305   -11110.142   -10090.782   -11110.142            0    3427.5088    46.806507    19.986939    20.932353            0            0            0    19582.609    3178.4591    4133.4204     2970.647    176.95192   -229.64651    203.05853    46.806507    19.986939    20.932353           90           90           90 
  124000    239.53619   -11133.343   -10054.471   -11133.343            0    2690.3749    46.700062    19.911351    20.971191            0            0            0    19500.299    1377.9433    4605.8891    2087.2924    70.368918   -904.78668     498.7905    46.700062    19.911351    20.971191           90           90           90 
  124500     230.0197   -11100.616   -10064.607   -11100.616            0    2506.7083     46.89516     20.18225    20.726489            0            0            0    19616.582    2680.1446    1520.1038    3319.8765   -20.354531   -168.93219    1016.2064     46.89516     20.18225    20.726489           90           90           90 
  125000    242.24506   -11111.114   -10020.042   -11111.114            0    2356.9925     46.92928    20.093216    20.870546            0            0            0    19680.093    2691.3154     2157.689    2221.9732   -86.032542    135.66089   -35.461635     46.92928    20.093216    20.870546           90           90           90 
  125500    225.77597   -11113.819   -10096.923   -11113.819            0    3708.8677    46.779488    19.967109     20.86534            0            0            0    19489.295    2803.5744    5077.0511    3245.9776    286.76282    180.92602   -186.21091    46.779488    19.967109     20.86534           90           90           90 
  126000    239.65665    -11122.31   -10042.895    -11122.31            0    3425.5937    46.684009    20.056565     20.79447            0            0            0    19470.296    3537.1672     3877.596     2862.018    654.84538    1116.0442    261.90604    46.684009    20.056565     20.79447           90           90           90 
  126500    229.31813    -11133.86    -10101.01    -11133.86            0     1893.308    46.987878    20.134288    20.886509            0            0            0    19760.046    1871.0351    2088.8326    1720.0564   -184.38948   -1088.0531   -73.701639    46.987878    20.134288    20.886509           90           90           90 
  127000    228.95963   -11101.571   -10070.336   -11101.571            0    2836.2328    46.633358    20.066697    20.904236            0            0            0    19561.714    2705.7309    3126.1879    2676.7797    401.22764    271.41017    95.322883    46.633358    20.066697    20.904236           90           90           90 
  127500    230.70862   -11132.674   -10093.561   -11132.674            0    4021.8802    46.753175     19.97631    20.884342            0            0            0    19505.054    3201.0834    4496.0664    4368.4908   -255.40045    478.79747    535.30607    46.753175     19.97631    20.884342           90           90           90 
  128000    229.25036   -11104.659   -10072.114   -11104.659            0    3190.3243      46.9742    20.165503    20.638408            0            0            0    19549.905    2813.0457    3378.0551     3379.872     235.2169   -343.65764    649.92469      46.9742    20.165503    20.638408           90           90           90 
  128500    226.21174   -11103.267   -10084.408   -11103.267            0    3555.0776    46.838401    19.986725     20.83946            0            0            0    19508.782    2811.2606    3978.4335    3875.5388    119.94258    -382.2183   -501.08581    46.838401    19.986725     20.83946           90           90           90 
  129000    231.49329   -11126.261   -10083.614   -11126.261            0    4422.4997    46.702587    20.014703    20.840088            0            0            0     19480.03    3360.3008    4807.2348    5099.9636   -646.69697    105.90845   -460.46596    46.702587    20.014703    20.840088           90           90           90 
  129500    230.53764   -11118.152    -10079.81   -11118.152            0    2836.1774    46.836373    20.081544     20.85105            0            0            0    19611.386    3006.0717    2150.5855    3351.8749    61.431025   -55.028792   -359.00555    46.836373    20.081544     20.85105           90           90           90 
  130000    233.48336     -11128.2    -10076.59     -11128.2            0    2619.3198     46.51238    20.179981    20.895336            0            0            0    19612.758    2674.8815    2753.4736    2429.6044    56.790588     194.2715    1326.7258     46.51238    20.179981    20.895336           90           90           90 
  130500    230.63191   -11096.206   -10057.439   -11096.206            0     3464.343    47.072438     19.95086    20.887054            0            0            0    19615.777    3675.4092    3894.8207    2822.7992   -133.07263     180.0206    535.76986    47.072438     19.95086    20.887054           90           90           90 
  131000    219.78008    -11132.35   -10142.459    -11132.35            0    2631.3427    46.883395    20.077261    20.806364            0            0            0    19584.826    3004.0886    1910.6261    2979.3133   -118.91535    901.82266    135.68993    46.883395    20.077261    20.806364           90           90           90 
  131500    225.41044   -11143.785   -10128.535   -11143.785            0     3845.856    46.680025    20.042309    20.750889            0            0            0    19414.023    4191.5561    2520.2054    4825.8066     492.2915   -8.0239485   -6.3395317    46.680025    20.042309    20.750889           90           90           90 
  132000    231.02953   -11149.746   -10109.188   -11149.746            0    3171.4203    46.667448     20.12088    20.836732            0            0            0    19565.486    2793.7545    3368.3758    3352.1306    53.833793   -232.67334    378.54303    46.667448     20.12088    20.836732           90           90           90 
  132500    232.45505   -11085.044   -10038.066   -11085.044            0    2581.3155    46.917434    19.921058    21.023344            0            0            0    19649.362    3189.3934    2682.6336    1871.9195    160.73511    162.49416     267.2966    46.917434    19.921058    21.023344           90           90           90 
  133000    233.13699   -11134.821   -10084.772   -11134.821            0    2811.2132    46.556199    20.148692    20.828513            0            0            0    19538.114    3141.4917    2974.1686    2317.9794   -66.199548    247.76115    660.83576    46.556199    20.148692    20.828513           90           90           90 
  133500    223.80954   -11145.466   -10137.427   -11145.466            0    2547.2438    46.997097    20.026461    20.765502            0            0            0     19544.19     2031.177    2809.2049    2801.3496   -372.21474    690.09948    450.08783    46.997097    20.026461    20.765502           90           90           90 
  134000    227.47831   -11098.582   -10074.018   -11098.582            0     3144.124    46.089976    20.177914    21.018958            0            0            0    19547.621    2992.3522    3666.1275    2773.8924     277.6641    -145.4358    103.24045    46.089976    20.177914    21.018958           90           90           90 
  134500    236.16207   -11080.066   -10016.391   -11080.066            0    3530.6809    47.137816    20.012656    20.733621            0            0            0    19559.121     3646.707    3207.4012    3737.9346   -107.43678   -690.84977    842.75428    47.137816    20.012656    20.733621           90           90           90 
  135000    229.26414   -11153.866    -10121.26   -11153.866            0     3202.888    46.675506    20.035452    20.800417            0            0            0     19451.82    2763.6607     3596.465    3248.5385    229.53727    259.15515   -579.05765    46.675506    20.035452    20.800417           90           90           90 
  135500     228.2949   -11134.291    -10106.05   -11134.291            0    2432.6629    46.983102    19.967155    20.971162            0            0            0    19673.443    2161.5042    2443.3786    2693.1058     12.82731    497.09826    54.140929    46.983102    19.967155    20.971162           90           90           90 
  136000    227.03579   -11104.304   -10081.734   -11104.304            0    3385.0272    46.835268    20.059744    20.775852            0            0            0    19518.985    3640.8403    3352.5657    3161.6755    360.89745    365.28267    666.29076    46.835268    20.059744    20.775852           90           90           90 
  136500    226.39116   -11109.787    -10090.12   -11109.787            0    2934.6073    46.667021    20.135004    20.892593            0            0            0     19631.53    3360.4182    2313.5931    3129.8105   -19.959688    215.02329    842.28236    46.667021    20.135004    20.892593           90           90           90 
  137000    230.23091   -11113.493   -10076.532   -11113.493            0     2147.204    46.561856    20.097962    20.968966            0            0            0    19622.725    2906.6196    1728.4556    1806.5368     557.7293   -277.90836   -365.04696    46.561856    20.097962    20.968966           90           90           90 
  137500    237.69888   -11070.136   -9999.5393   -11070.136            0    3748.6305     46.58601     20.17308    20.715619            0            0            0    19468.193    5291.6156    1733.9752    4220.3006   -165.59256   0.72664663    757.30024     46.58601     20.17308    20.715619           90           90           90 
  138000    230.30681     -11111.4   -10074.097     -11111.4            0     1742.725    46.896539    20.032119    20.946235            0            0            0     19677.67    1588.0563    2234.5103    1405.6084    637.50235    129.50154   -574.31868    46.896539    20.032119    20.946235           90           90           90 
  138500    229.74336   -11126.044   -10091.279   -11126.044            0     3259.414    46.716217    20.007082    20.861613            0            0            0    19498.414    3080.6021    4381.9279    2315.7119   -203.75275   -1066.5602    48.929338    46.716217    20.007082    20.861613           90           90           90 
  139000    220.29105    -11128.39   -10136.198    -11128.39            0    3763.7367    46.997903    19.901248    20.860977            0            0            0    19511.626    3274.8823    4471.4154    3544.9123    17.334755   -103.38812    1146.0578    46.997903    19.901248    20.860977           90           90           90 
  139500     226.4603   -11080.216   -10060.238   -11080.216            0    2312.9536    46.933086    20.114821    20.762579            0            0            0    19600.925    2498.5023    1672.0146     2768.344   -103.53679    235.63004    -937.3241    46.933086    20.114821    20.762579           90           90           90 
  140000    235.20591   -11134.393   -10075.024   -11134.393            0    2546.1832    46.933357    19.976394    20.892399            0            0            0    19587.862    3476.5669    1999.3808     2162.602   -309.83678   -461.67748   -339.78031    46.933357    19.976394    20.892399           90           90           90 
  140500    233.88637   -11090.734   -10037.309   -11090.734            0    2240.6497    46.845557    20.068975    20.775143            0            0            0    19531.591    2039.0428    1824.6628    2858.2436   -366.14631   -404.95366     434.8874    46.845557    20.068975    20.775143           90           90           90 
  141000    226.72478   -11113.095   -10091.925   -11113.095            0    3956.9864    46.712132    19.987341    20.786462            0            0            0    19407.308    4216.0794    3277.9217    4376.9583   -121.12964    493.40573   -462.48801    46.712132    19.987341    20.786462           90           90           90 
  141500    228.05389   -11115.712   -10088.557   -11115.712            0    2987.6431    46.565088    20.087186    20.955839            0            0            0    19601.287    4173.6987    2976.6738    1812.5567    88.989178    222.44655    58.254045    46.565088    20.087186    20.955839           90           90           90 
  142000    236.08369   -11141.063   -10077.741   -11141.063            0    2616.5502     46.67683    20.150579    20.870807            0            0            0    19630.354    3290.9999    1609.5071    2949.1435    348.13357    1129.4585    784.34398     46.67683    20.150579    20.870807           90           90           90 
  142500    230.15938   -11074.153   -10037.515   -11074.153            0    3066.1196    46.844672    19.948296    20.901893            0            0            0    19532.221    3573.5719    2550.0995    3074.6875    204.74821    763.78617   -105.85195    46.844672    19.948296    20.901893           90           90           90 
  143000    224.58063   -11118.745   -10107.233   -11118.745            0    2982.8679    46.750518    20.137643    20.778959            0            0            0    19562.253    2586.3527    3295.6233    3066.6277   -333.89704    234.10164    549.33099    46.750518    20.137643    20.778959           90           90           90 
  143500    229.69735   -11099.945   -10065.388   -11099.945            0    4431.5307    46.427044    20.038269    20.875932            0            0            0    19421.248    5356.9164    4130.5601    3807.1157   -281.53198   -1021.1855    944.19224    46.427044    20.038269    20.875932           90           90           90 
  144000    234.35242   -11133.416   -10077.892   -11133.416            0    2841.0643    46.578287    20.107807    20.936129            0            0            0    19608.511     3695.153    1798.3188    3029.7211   -260.53637    265.94873   -607.10906    46.578287    20.107807    20.936129           90           90           90 
  144500     238.0584   -11145.258   -10073.042   -11145.258            0    3288.3421     46.77329    20.023381    20.781015            0            0            0    19462.655    3170.0096    3088.6325    3606.3843    59.441089   -1081.2345     231.1915     46.77329    20.023381    20.781015           90           90           90 
  145000    225.28536    -11127.03   -10112.344    -11127.03            0    2885.8566     46.85573    20.065904    20.830456            0            0            0    19584.848    2635.6906    3004.1682    3017.7112   -288.42583   -975.97201    237.36467     46.85573    20.065904    20.830456           90           90           90 
  145500    222.88721   -11099.676   -10095.791   -11099.676            0    2750.0221    46.877986    19.862482    20.925631            0            0            0    19484.131    3264.5977    1955.4642    3030.0042   -116.34987    445.69632    764.77204    46.877986    19.862482    20.925631           90           90           90 
  146000    223.70314   -11103.316   -10095.756   -11103.316            0    2902.0064    47.013847    19.960098    20.790655            0            0            0    19509.971    2327.6901    3854.7733    2523.5559    292.43225   -1090.4571   -257.66426    47.013847    19.960098    20.790655           90           90           90 
  146500    227.77652   -11101.255   -10075.349   -11101.255            0    3492.1357    46.986158    20.020679    20.740639            0            0            0     19510.61    3022.1727    3834.4041    3619.8302   -359.28451    253.92306    -581.0078    46.986158    20.020679    20.740639           90           90           90 
  147000    229.04139   -11107.737   -10076.133   -11107.737            0     1996.062    46.747724    20.070379    20.993075            0            0            0    19696.638    2093.1634    1589.0827    2305.9398   -557.33232   -106.50636   -213.49893    46.747724    20.070379    20.993075           90           90           90 
  147500    238.13131   -11117.117   -10044.573   -11117.117            0    3607.2612    46.550746    20.068514    20.833548            0            0            0    19462.791    3999.3574    3435.4881    3386.9381    -213.5203    157.04056    506.21477    46.550746    20.068514    20.833548           90           90           90 
  148000    228.20594   -11119.786   -10091.946   -11119.786            0    4228.7398    46.546462    20.013306    20.756825            0            0            0    19335.991    2768.1127    5877.6098    4040.4968    -237.7826   -399.79766    731.91702    46.546462    20.013306    20.756825           90           90           90 
  148500    235.99318   -11112.386   -10049.472   -11112.386            0    3139.1305     46.77267    20.108103    20.876392            0            0            0    19634.448    2712.4803    3632.1716    3072.7396    72.998143    934.75244    -137.4155     46.77267    20.108103    20.876392           90           90           90 
  149000    231.85861   -11064.333   -10020.041   -11064.333            0    2790.0055    47.082183    20.025443    20.859186            0            0            0    19666.908    1989.8795    3068.2611     3311.876   -205.21053    1236.3253   -59.937179    47.082183    20.025443    20.859186           90           90           90 
  149500     229.4187    -11099.26   -10065.957    -11099.26            0    4190.4738     46.91898    19.918316    20.783591            0            0            0    19423.245    3433.5713    4892.5795    4245.2705   -400.89232    1659.3021    207.55873     46.91898    19.918316    20.783591           90           90           90 
  150000    227.97375   -11137.189   -10110.395   -11137.189            0    3136.8248     47.03737    19.921494    20.874055            0            0            0    19560.131    1218.3872    4480.9983     3711.089   -411.41626    456.67948   -96.108604     47.03737    19.921494    20.874055           90           90           90 
  150500    229.75932   -11099.717    -10064.88   -11099.717            0    2942.6924    46.768729     19.99976    20.928993            0            0            0    19576.213     2940.446    3318.3438    2569.2873    423.75642    294.02847    317.81229    46.768729     19.99976    20.928993           90           90           90 
  151000    223.30345    -11112.95   -10107.191    -11112.95            0    3066.1432    46.779216    20.185663    20.706196            0            0            0    19552.229    3201.5578    2431.6091    3565.2628    -275.7847     514.3555    -265.3198    46.779216    20.185663    20.706196           90           90           90 
  151500    235.27387   -11133.224    -10073.55   -11133.224            0    2350.6065    46.814138    19.995514    20.989779            0            0            0     19647.96    2380.3781    2317.4728    2353.9685   -583.51543   -219.42318   -717.88531    46.814138    19.995514    20.989779           90           90           90 
  152000    223.80161   -11126.848   -10118.845   -11126.848            0    3282.8944    46.879021    20.024138    20.820565            0            0            0    19544.514    3396.1115    3338.9695    3113.6022   -72.816291   -448.70883    336.20444    46.879021    20.024138    20.820565           90           90           90 
  152500     229.3264   -11139.059   -10106.172   -11139.059            0     2725.252      46.9053    20.018283    20.877894            0            0            0    19603.582    3038.3573    2923.7376     2213.661    239.25027   -410.78465     260.7404      46.9053    20.018283    20.877894           90           90           90 
  153000    228.61877   -11121.743   -10092.043   -11121.743            0    1990.7949    46.591998    20.183632    20.912971            0            0            0    19666.469      2831.88    1407.4026    1733.1022   -90.339701   -20.564635   -463.01092    46.591998    20.183632    20.912971           90           90           90 
  153500    226.59845   -11120.608   -10100.008   -11120.608            0    4102.7392    46.779307    19.973852    20.839216            0            0            0    19471.391     4117.563    4430.1071    3760.5475    135.95769    244.91926   -372.51597    46.779307    19.973852    20.839216           90           90           90 
  154000      240.075   -11125.654   -10044.355   -11125.654            0    3459.6524    46.813129     19.96249    20.860783            0            0            0    19494.539    3238.5951    3297.2884    3843.0736    142.36088    121.94779   -247.58272    46.813129     19.96249    20.860783           90           90           90 
  154500     226.5795   -11153.242   -10132.727   -11153.242            0    3475.1595    46.937656    19.992713    20.838515            0            0            0    19555.093    2551.8898    4370.3826     3503.206     133.4933    316.82471   -223.67331    46.937656    19.992713    20.838515           90           90           90 
  155000    239.27692   -11118.725   -10041.021   -11118.725            0    2821.3276    46.683999    20.191086    20.811652            0            0            0    19617.077    3865.2638    1477.4741     3121.245    481.42262   -304.09181    317.55109    46.683999    20.191086    20.811652           90           90           90 
  155500    228.51171   -11102.692   -10073.474   -11102.692            0    2491.6236    46.600842     20.10044    20.972003            0            0            0    19644.422    2844.7539    2467.9698    2162.1472    161.15237   -115.36038      34.0106    46.600842     20.10044    20.972003           90           90           90 
  156000    220.48795   -11131.713   -10138.634   -11131.713            0    3451.6422     47.03657    19.996576    20.773012            0            0            0     19538.48    3085.1164    3503.9092     3765.901    12.007261   -927.24743    803.04561     47.03657    19.996576    20.773012           90           90           90 
  156500    217.35282   -11101.825   -10122.867   -11101.825            0    3335.5924    47.000629    19.937852    20.840605            0            0            0    19529.555    2546.2165     3748.538    3712.0227   -222.88329   -429.29735    -266.6588    47.000629    19.937852    20.840605           90           90           90 
  157000      227.765   -11152.891   -10127.037   -11152.891            0    3065.8624    46.993722    20.003281    20.817238            0            0            0    19568.799    2477.9894    4002.3605    2717.2372    198.35551   -109.70315   -106.29614    46.993722    20.003281    20.817238           90           90           90 
  157500    229.87645   -11141.587   -10106.223   -11141.587            0    2111.5277     46.86413     20.08101    20.825973            0            0            0    19598.887    1771.9752    2791.2815    1771.3263   -252.26973    226.45429    2.6085759     46.86413     20.08101    20.825973           90           90           90 
  158000    220.90787   -11092.922   -10097.953   -11092.922            0    3768.9904     46.52313    19.999014    20.868005            0            0            0    19415.942    5209.5555    2805.9969     3291.419    59.464938    187.18563   -93.222622     46.52313    19.999014    20.868005           90           90           90 
  158500    232.91433    -11120.85   -10071.803    -11120.85            0    3185.3942    46.591534    20.174092     20.84675            0            0            0    19594.734    3911.9062     2402.207    3242.0694   -29.783782     217.6256    79.943034    46.591534    20.174092     20.84675           90           90           90 
  159000    226.48095   -11057.255   -10037.184   -11057.255            0    2727.7499    46.571113    20.166263    20.921283            0            0            0    19648.543    2490.4603    2515.9469    3176.8424   -691.93146    23.045243   -202.77807    46.571113    20.166263    20.921283           90           90           90 
  159500    230.47147   -11120.913   -10082.868   -11120.913            0    2816.7927    46.829077     20.08706    20.830799            0            0            0    19594.667    2271.7529    3324.9756    2853.6495    153.94273    624.46774    860.47184    46.829077     20.08706    20.830799           90           90           90 
  160000     230.1948   -11099.113   -10062.315   -11099.113            0    2805.7737    46.673435    19.988816    20.947193            0            0            0    19542.615    4066.2818     2024.082    2326.9572   -475.83595    -410.9358    578.65451    46.673435    19.988816    20.947193           90           90           90 
  160500    233.79364   -11061.102   -10008.095   -11061.102            0    3356.6177    46.913759    20.081774    20.811919            0            0            0    19607.148    3202.1348    3444.5586    3423.1596   -256.49501   -641.78114    -591.0779    46.913759    20.081774    20.811919           90           90           90 
  161000    220.87288   -11114.875   -10120.063   -11114.875            0    4155.4278      46.9458    19.886514    20.805292            0            0            0    19423.578    2663.9727    5485.8645    4316.4462    29.352883    703.19995    794.48146      46.9458    19.886514    20.805292           90           90           90 
  161500    237.03674   -11127.665    -10060.05   -11127.665            0    1819.6987    47.094167    20.032154    20.782591            0            0            0    19606.247    1122.2663    2226.9744    2109.8556    72.981155    626.82912   -35.339363    47.094167    20.032154    20.782591           90           90           90 
  162000    222.97324   -11128.347   -10124.075   -11128.347            0    2616.2932    46.837076    19.959377    20.938289            0            0            0    19573.927    2744.8717    2962.3489    2141.6591   -512.95538    15.854504   -342.59776    46.837076    19.959377    20.938289           90           90           90 
  162500    225.52115   -11121.055   -10105.307   -11121.055            0    2088.8099     46.82133    20.070705    20.804932            0            0            0    19551.167    2196.4717    2380.0468    1689.9112   -60.129947    52.356233    96.167169     46.82133    20.070705    20.804932           90           90           90 
  163000    228.84114   -11136.157   -10105.456   -11136.157            0    3323.5889    46.942793    20.027437    20.867141            0            0            0    19618.113    3436.5848    3236.2992    3297.8828   -185.80022    340.78874   -192.25946    46.942793    20.027437    20.867141           90           90           90 
  163500    230.79804   -11139.945   -10100.429   -11139.945            0    4002.3285    46.965681    19.883648    20.843573            0            0            0    19464.752    3590.3856    4281.7754    4134.8246   -38.347296    160.16381    336.06019    46.965681    19.883648    20.843573           90           90           90 
  164000    221.64609   -11087.238   -10088.943   -11087.238            0    3106.7942    46.997743    20.085942    20.739848            0            0            0    19578.291    3294.9992    2229.1263     3796.257    215.61321    280.55074    417.30005    46.997743    20.085942    20.739848           90           90           90 
  164500    240.73967   -11086.318   -10002.025   -11086.318            0    3013.1805    46.911712    20.021395     21.01211            0            0            0    19735.371    3661.2259    2808.1571    2570.1586    587.72217    23.394887    806.07678    46.911712    20.021395     21.01211           90           90           90 
  165000    230.13475   -11085.094   -10048.566   -11085.094            0    3506.1907    46.670714    20.060396    20.872528            0            0            0     19541.55    4867.6518    3050.1424     2600.778    57.864983   -520.87461    336.80027    46.670714    20.060396    20.872528           90           90           90 
  165500    230.22545   -11118.038   -10081.102   -11118.038            0    3541.9711    46.787274    20.115942    20.834356            0            0            0    19608.673    3871.6824    2893.8695    3860.3614   -462.40713    316.41676   -640.33957    46.787274    20.115942    20.834356           90           90           90 
  166000     230.9219   -11092.075   -10052.002   -11092.075            0    2870.2944    46.793375    20.007683    20.809377            0            0            0    19482.301     3115.935     3402.762    2092.1862    487.42041     531.5784     219.4772    46.793375    20.007683    20.809377           90           90           90 
  166500    226.03665   -11170.194   -10152.124   -11170.194            0    2444.0347    46.824591    19.972686    20.977612            0            0            0    19618.533    1177.9562    3266.4574    2887.6905     561.1762    316.35232    74.298105    46.824591    19.972686    20.977612           90           90           90 
  167000    222.24927   -11137.697   -10136.685   -11137.697            0    2985.9967    46.704619     20.02733    20.977193            0            0            0    19621.411    3967.6815    2541.9791    2448.3294    120.42601   -335.95525    215.03116    46.704619     20.02733    20.977193           90           90           90 
  167500    225.21274   -11123.164   -10108.805   -11123.164            0    3869.9285    46.872784    20.073343    20.689568            0            0            0    19466.679    3684.8179    2939.6354    4985.3321    591.99903   -318.26509   -139.62701    46.872784    20.073343    20.689568           90           90           90 
  168000      229.734   -11075.468   -10040.745   -11075.468            0      3383.38    46.993773    20.043506    20.912343            0            0            0    19697.754    3825.6281    3140.9064    3183.6055    104.94171    201.76286    524.77051    46.993773    20.043506    20.912343           90           90           90 
  168500    231.91655   -11103.453     -10058.9   -11103.453            0    3026.0449    46.666139    20.105698    20.881458            0            0            0    19592.139    3206.3113     3167.038    2704.7853   -442.25767   -270.50962   -126.77185    46.666139    20.105698    20.881458           90           90           90 
  169000    230.00437   -11119.468   -10083.528   -11119.468            0    2709.1194     46.73359    20.062344    20.859928            0            0            0    19557.963    2784.4132    2377.0323    2965.9127   -288.10332    583.31193   -211.86144     46.73359    20.062344    20.859928           90           90           90 
  169500    234.86458   -11120.858   -10063.027   -11120.858            0    2954.2178    46.824074    20.075372    20.816329            0            0            0    19567.572    2976.2827    3036.0581    2850.3126   -26.009384    358.89612   -653.25893    46.824074    20.075372    20.816329           90           90           90 
  170000    222.70447   -11113.009   -10109.947   -11113.009            0    3060.4689    46.756749    19.924914    21.022782            0            0            0    19585.332    3980.1711    2872.1963    2329.0392   -104.91332   -656.88078   -301.71303    46.756749    19.924914    21.022782           90           90           90 
  170500    216.24599   -11125.167   -10151.194   -11125.167            0    3273.8204    46.968468    20.017208    20.725474            0            0            0    19485.626    3060.0192    3472.8744    3288.5675    702.12132    -1604.759     549.7688    46.968468    20.017208    20.725474           90           90           90 
  171000    227.63524   -11127.314   -10102.044   -11127.314            0    2303.1911     46.90569    20.031067    20.827679            0            0            0    19569.084    2288.6339    2037.8847    2583.0549   -95.908362    404.01783     646.8079     46.90569    20.031067    20.827679           90           90           90 
  171500    227.33216   -11103.566   -10079.661   -11103.566            0    1884.9502    46.989425    19.955684    20.989633            0            0            0    19682.107    2175.6296    2101.2936    1377.9275   -85.101229    468.07346    607.47254    46.989425    19.955684    20.989633           90           90           90 
  172000    238.06669   -11134.934   -10062.681   -11134.934            0    3870.8759    46.809468     20.07656    20.767841            0            0            0    19517.058    4105.5895    3255.3661    4251.6721    4.6447294   -525.00518     449.1868    46.809468     20.07656    20.767841           90           90           90 
  172500    233.46846   -11084.598   -10033.055   -11084.598            0    2694.2459    46.684891    20.122143    20.859594            0            0            0    19595.503    2950.2257    2131.4558    3001.0564    263.23971     554.0537   -175.75326    46.684891    20.122143    20.859594           90           90           90 
  173000    235.09961     -11132.3    -10073.41     -11132.3            0    3548.0098    46.280719    20.159407    20.929325            0            0            0    19526.889     4610.696      2485.42    3547.9133    138.09614    269.05479    1448.2294    46.280719    20.159407    20.929325           90           90           90 
  173500    233.33107   -11132.585   -10081.661   -11132.585            0     3427.328    46.737914    20.083024    20.808718            0            0            0    19531.867    3654.4092    2898.1773    3729.3976    430.06296    757.01923    68.570821    46.737914    20.083024    20.808718           90           90           90 
  174000    227.37811   -11164.856   -10140.744   -11164.856            0    2782.1362    46.944099    20.021426    20.801437            0            0            0    19551.017    1503.5295    3826.5266    3016.3526   -207.55384   -193.58185   -695.37042    46.944099    20.021426    20.801437           90           90           90 
  174500    232.47968   -11128.237   -10081.147   -11128.237            0      3278.89    47.074907    19.903771    20.977348            0            0            0    19655.108    3087.1461    3611.3374    3138.1866    -20.59156   -55.870547   -350.55616    47.074907    19.903771    20.977348           90           90           90 
  175000     219.8541   -11087.212   -10096.988   -11087.212            0    3231.0705    46.967907    20.064678    20.780373            0            0            0    19583.338     2760.976    3323.7439    3608.4915    169.51563   -151.06759    964.77807    46.967907    20.064678    20.780373           90           90           90 
  175500    230.45658   -11140.101   -10102.124   -11140.101            0    2602.0705    46.859234    20.047452     20.76483            0            0            0    19506.652    1567.7657     2534.029    3704.4168    171.37801   -26.446257   -503.38428    46.859234    20.047452     20.76483           90           90           90 
  176000    229.15694    -11135.81   -10103.686    -11135.81            0    2225.4496    46.685589     20.01125    21.032586            0            0            0     19649.42    2644.8391     2008.113    2023.3969    280.03872   -1132.0765   -1099.3888    46.685589     20.01125    21.032586           90           90           90 
  176500    230.14781   -11083.002   -10046.415   -11083.002            0    3585.3712     46.64874     20.19264    20.741282            0            0            0    19537.483    3071.3819    3417.0397     4267.692    346.28597   -605.71029    372.43922     46.64874     20.19264    20.741282           90           90           90 
  177000    237.16512   -11172.341   -10104.148   -11172.341            0    2813.7827    46.939701    20.013106    20.751979            0            0            0    19494.601    3112.9832    1526.1456    3802.2193   -556.53904   -88.026337    702.56722    46.939701    20.013106    20.751979           90           90           90 
  177500    225.03734   -11110.191   -10096.622   -11110.191            0    3023.8054    46.868123    20.008677      20.8771            0            0            0      19577.9    2839.3415    2877.7663    3354.3085   -202.03426    -119.9046    411.57178    46.868123    20.008677      20.8771           90           90           90 
  178000    226.59437   -11085.989   -10065.407   -11085.989            0    2737.8969    46.831112    20.128007    20.822336            0            0            0    19627.487    2964.3644    1237.1341    4012.1923    64.671379   -296.89133   -141.73861    46.831112    20.128007    20.822336           90           90           90 
  178500     223.5694   -11143.098    -10136.14   -11143.098            0    3016.7773    46.684321    19.908928    20.975024            0            0            0    19494.916    2907.1362     4125.627    2017.5687    232.91477   -118.46481    342.14072    46.684321    19.908928    20.975024           90           90           90 
  179000    231.20828   -11165.934   -10124.571   -11165.934            0    2790.8086    47.151333    19.993037    20.777739            0            0            0    19587.141    1976.8729    3430.7944    2964.7584    33.363743    554.09087    355.70953    47.151333    19.993037    20.777739           90           90           90 
  179500    237.77011   -11108.818   -10037.901   -11108.818            0    2456.9442    46.710044    20.132966    20.810137            0            0            0    19570.097     3140.217    2611.7493    1618.8662   -486.93038    -817.3078    2.7401143    46.710044    20.132966    20.810137           90           90           90 
  180000    229.74711    -11154.67   -10119.888    -11154.67            0    1639.0974     46.83619    20.051466    20.892045            0            0            0    19620.436    1689.0108    1980.0745    1248.2068    298.87498    321.37734   -341.97685     46.83619    20.051466    20.892045           90           90           90 
  180500     230.5555   -11071.699   -10033.276   -11071.699            0    2670.3191    47.320251    19.924077     20.93517            0            0            0    19737.937    1804.8234    3470.6693    2735.4646   -259.58867   -606.12172   -65.066578    47.320251    19.924077     20.93517           90           90           90 
  181000    227.04925   -11114.226   -10091.595   -11114.226            0    2699.4714     47.03335    20.019254    20.742055            0            0            0    19530.151    3229.7077    1921.0236    2947.6829   -116.39819    585.71099    505.41083     47.03335    20.019254    20.742055           90           90           90 
  181500    232.65537   -11153.943   -10106.063   -11153.943            0    3090.9969    46.573505    19.992026    21.008733            0            0            0    19561.204    3019.6752    3519.7256    2733.5899    117.02565     1286.148    670.02096    46.573505    19.992026    21.008733           90           90           90 
  182000    225.13691    -11114.16   -10100.143    -11114.16            0    2454.7014    46.767389    20.112937    20.766316            0            0            0    19533.411    1996.2429    2636.2777    2731.5835    105.00457    938.46861   -6.4186682    46.767389    20.112937    20.766316           90           90           90 
  182500    223.46986   -11098.543   -10092.034   -11098.543            0    3238.0172    46.969625    20.050288    20.811721            0            0            0    19599.531    3690.3104    2453.7577    3569.9834    19.407463   -311.33621    969.16446    46.969625    20.050288    20.811721           90           90           90 
  183000    229.45768   -11084.283   -10050.804   -11084.283            0    2584.3441    46.465777    19.982834    21.110901            0            0            0     19601.85    3101.5808    3345.5086    1305.9429   -168.57725   -378.27996   -695.30387    46.465777    19.982834    21.110901           90           90           90 
  183500     231.3479   -11090.363   -10048.372   -11090.363            0    2683.0921    46.966439    20.091818     20.72463            0            0            0    19556.614    2787.7443    2563.4126    2698.1194     41.82576   -86.074502   -1232.4561    46.966439    20.091818     20.72463           90           90           90 
  184000    229.53576   -11099.979   -10066.149   -11099.979            0    3473.9829    46.796131     20.10797    20.825384            0            0            0     19596.17    2873.0186    4220.4203    3328.5098    -115.8749    306.62869    -216.5783    46.796131     20.10797    20.825384           90           90           90 
  184500    225.19407   -11079.495    -10065.22   -11079.495            0    2631.1427    46.830189    20.053204    20.917076            0            0            0    19643.128    3495.2679    1630.8754    2767.2847   -648.89666   -200.61598   -39.365532    46.830189    20.053204    20.917076           90           90           90 
  185000    219.53428   -11101.292   -10112.508   -11101.292            0    4045.0452    46.583786    20.113775     20.82543            0            0            0    19512.924    4584.9622    3267.4701    4282.7033   -504.40204    7.2747532   -233.48316    46.583786    20.113775     20.82543           90           90           90 
  185500     223.9131   -11062.298   -10053.793   -11062.298            0    1202.4989    46.988081    20.139314     20.91066            0            0            0    19787.919    1838.4518    302.05666    1466.9881   -16.476633    934.73442   -369.73967    46.988081    20.139314     20.91066           90           90           90 
  186000    226.97111   -11078.055   -10055.777   -11078.055            0    3194.9706    46.694898    20.000194    20.882814            0            0            0    19502.607    2328.4844    4407.2933     2849.134   -324.99619   -94.485533   -119.23038    46.694898    20.000194    20.882814           90           90           90 
  186500    221.35736    -11105.75   -10108.755    -11105.75            0    1795.1347    47.356871    19.951276    20.818634            0            0            0    19670.071    1280.5632     1695.788    2409.0527    222.33848   -755.40769     225.0407    47.356871    19.951276    20.818634           90           90           90 
  187000    230.81268   -11145.154   -10105.573   -11145.154            0    2731.8367     46.65644    20.134858    20.834646            0            0            0      19572.5    2510.6544    2653.3619    3031.4938    21.822248   -679.57817    926.75851     46.65644    20.134858    20.834646           90           90           90 
  187500    228.19796   -11113.948   -10086.144   -11113.948            0    2994.7694    46.724056    19.975347    20.947475            0            0            0    19550.891    3094.1745    3350.2964    2539.8372   -148.85655   -609.12642    156.98918    46.724056    19.975347    20.947475           90           90           90 
  188000    228.47563   -11067.054   -10037.999   -11067.054            0    3150.0795    46.978702    20.029116    20.737018            0            0            0    19512.329    2978.8921    2999.8092    3471.5372   -75.954823   -21.330548    521.61747    46.978702    20.029116    20.737018           90           90           90 
  188500    232.14449   -11115.241   -10069.661   -11115.241            0    3847.5308     47.19387    19.941118    20.781023            0            0            0     19556.99    2960.3738    4728.7133    3853.5052    152.45025    1349.7707    343.29015     47.19387    19.941118    20.781023           90           90           90 
  189000    224.61802   -11124.177   -10112.497   -11124.177            0    2795.4961    46.635671    20.086132    20.911232            0            0            0    19588.184    2128.4229    3801.0414     2457.024   -72.957836   -220.68976   -301.77898    46.635671    20.086132    20.911232           90           90           90 
  189500    228.54359   -11126.031    -10096.67   -11126.031            0    2634.9914     46.90989    20.016106    20.757992            0            0            0    19490.785      2713.69    2847.8533    2343.4309   -187.27123   -467.25933   -451.75194     46.90989    20.016106    20.757992           90           90           90 
  190000    236.18384   -11095.734   -10031.961   -11095.734            0    2544.7826    46.544492    20.083319    20.863076            0            0            0    19502.133    3423.1441    2875.6574    1335.5462   -418.06313    585.79585    308.42804    46.544492    20.083319    20.863076           90           90           90 
  190500    230.86202    -11097.14   -10057.336    -11097.14            0     2946.444    47.012792    19.859022    20.987786            0            0            0    19594.786    1412.1251    4767.6121     2659.595   -101.97448    603.66966   -51.856435    47.012792    19.859022    20.987786           90           90           90 
  191000    232.29615   -11122.041   -10075.778   -11122.041            0    2746.8108    46.700915    20.159332    20.825695            0            0            0    19606.543    2908.4275    2690.8788    2641.1261   -68.605368   -348.21342    480.11686    46.700915    20.159332    20.825695           90           90           90 
  191500    229.31258   -11108.741   -10075.916   -11108.741            0     2854.004    46.601604    20.100991    20.959429            0            0            0    19633.503    2960.4992     2492.521    3108.9918   -168.66733   -408.95734    231.72739    46.601604    20.100991    20.959429           90           90           90 
  192000    224.98481    -11170.05   -10156.718    -11170.05            0    2496.3416    46.619369    20.159853    20.861668            0            0            0    19606.623     2741.629    2354.4511    2392.9448   -129.80592   -553.38552   -794.84965    46.619369    20.159853    20.861668           90           90           90 
  192500    230.77619   -11104.591   -10065.174   -11104.591            0    2396.2472    46.798192    20.123957    20.825538            0            0            0    19612.759    1929.0799    2267.2016    2992.4602    5.1655208    94.060236    467.30389    46.798192    20.123957    20.825538           90           90           90 
  193000    231.75789   -11121.504   -10077.665   -11121.504            0    3176.6462    46.548015     20.08426    20.929318            0            0            0    19566.451    3551.0847    3273.8615    2704.9925   -167.23992    426.48434    808.30708    46.548015     20.08426    20.929318           90           90           90 
  193500    231.36816   -11156.937   -10114.854   -11156.937            0    2020.3025    46.949152     20.00294    20.890727            0            0            0    19618.921     2753.738    1414.1674    1893.0021    110.68433    677.34997   -170.58208    46.949152     20.00294    20.890727           90           90           90 
  194000    232.93727    -11107.25   -10058.099    -11107.25            0    3782.4441    47.026085    19.897205    20.863746            0            0            0    19521.949    2501.9687      4716.92    4128.4436     8.291021   -598.88807    601.71794    47.026085    19.897205    20.863746           90           90           90 
  194500    233.38237   -11096.219   -10045.064   -11096.219            0    2548.9226     46.86092    20.102919    20.792774            0            0            0    19587.652    3694.4928    2249.1555    1703.1194    79.929975     47.16946    64.564789     46.86092    20.102919    20.792774           90           90           90 
  195000    227.85904   -11111.016   -10084.738   -11111.016            0    4063.9587    46.652394    19.996628     20.86007            0            0            0    19460.163    4652.0845    3977.1551    3562.6364   -533.82141   -796.61597    336.36931    46.652394    19.996628     20.86007           90           90           90 
  195500    230.97345   -11050.767   -10010.461   -11050.767            0    3455.5364    46.748899    20.110023    20.888267            0            0            0    19637.508    5174.2347    2948.8617    2243.5128   -383.67802   -1514.7942    154.96737    46.748899    20.110023    20.888267           90           90           90 
  196000    233.71024   -11111.466   -10058.834   -11111.466            0    2829.7191    47.179316    20.114263    20.731724            0            0            0    19673.933    2436.6519    2375.3746    3677.1308    69.356176    83.344276    146.35929    47.179316    20.114263    20.731724           90           90           90 
  196500    228.75609   -11082.712   -10052.394   -11082.712            0    3544.4666    46.591897    19.969439     20.93389            0            0            0    19477.185    3896.0356    3994.2401    2743.1241   -339.49152   -25.701947   -281.75851    46.591897    19.969439     20.93389           90           90           90 
  197000     234.6471   -11105.941   -10049.089   -11105.941            0    2168.3606    46.954722    19.987331    20.914346            0            0            0    19628.105    1661.3426    3271.2749    1572.4642   -675.58888   -740.54396    163.81158    46.954722    19.987331    20.914346           90           90           90 
  197500    230.39049   -11141.226   -10103.547   -11141.226            0    3184.8407    46.624443    20.081971    20.846893            0            0            0    19519.169     3606.656    3691.6897    2256.1764    353.33645    -54.75988    -395.9082    46.624443    20.081971    20.846893           90           90           90 
  198000    230.12995   -11119.583   -10083.076   -11119.583            0    3321.2697    46.710738    20.052154      20.8527            0            0            0      19531.7     3816.041     2872.972    3274.7961   -140.36755    291.17995   -569.32234    46.710738    20.052154      20.8527           90           90           90 
  198500    230.18312   -11127.263   -10090.517   -11127.263            0    3744.0859    46.914372    20.004007    20.794362            0            0            0    19514.998    3706.5392    4101.2206    3424.4978       109.67   -1063.1548    516.86539    46.914372    20.004007    20.794362           90           90           90 
  199000    234.44729   -11115.964   -10060.013   -11115.964            0    2540.2178    46.999137    19.968004     20.82881            0            0            0      19547.4    1781.6273    3556.9782    2282.0479    489.67055    342.13942    64.646371    46.999137    19.968004     20.82881           90           90           90 
  199500    237.20176   -11109.591   -10041.233   -11109.591            0    3616.0665     46.76374    19.976898    20.979771            0            0            0    19599.186    3832.5199    3966.1777    3049.5019    514.95819   -247.35676    146.96369     46.76374    19.976898    20.979771           90           90           90 
  200000    227.86132    -11097.31   -10071.022    -11097.31            0    2362.4673    46.664957    20.227664     20.74773            0            0            0    19584.261    3281.2833    978.70406    2827.4146   -129.58871   -476.84448   -601.81996    46.664957    20.227664     20.74773           90           90           90 
  200500    222.51579    -11132.89   -10130.678    -11132.89            0    2283.6297    46.863818    20.119503    20.869723            0            0            0    19677.576    3040.5288     1728.845    2081.5154   -512.34212    502.47655   -49.357879    46.863818    20.119503    20.869723           90           90           90 
  201000    227.66539   -11080.063   -10054.657   -11080.063            0    2839.8228    46.825761    20.064688    20.918783            0            0            0    19654.123    2302.5416    3448.9031    2768.0237   -273.23458   -431.09984    297.88858    46.825761    20.064688    20.918783           90           90           90 
  201500    230.30197   -11102.198   -10064.917   -11102.198            0    4316.6978    47.002018    19.897308    20.768497            0            0            0    19422.981    3185.7346    4635.5548    5128.8039   -359.49734    2.0706221   -26.874526    47.002018    19.897308    20.768497           90           90           90 
  202000    225.11859   -11096.856   -10082.921   -11096.856            0    2827.8767    46.612367    20.049203    20.849227            0            0            0    19484.454     2702.721    3016.1374    2764.7718   -52.684743   -410.37266    183.86419    46.612367    20.049203    20.849227           90           90           90 
  202500    223.50274   -11105.989   -10099.332   -11105.989            0    3562.3602    46.822389    20.005561    20.915821            0            0            0     19592.02    3110.1258    3474.6511    4102.3036    82.899944   -125.94791    496.08985    46.822389    20.005561    20.915821           90           90           90 
  203000    227.79696   -11153.872   -10127.874   -11153.872            0    3901.0063    46.582743    19.970963    20.886375            0            0            0    19430.641    4280.3014    4165.9841    3256.7335     334.4789   -222.33863   -80.905677    46.582743    19.970963    20.886375           90           90           90 
  203500    231.63526   -11128.694   -10085.408   -11128.694            0    2418.7912    46.936553    20.210394    20.662798            0            0            0    19600.859    1402.0563    2329.0775    3525.2399    -270.0959   -607.24551    268.91273    46.936553    20.210394    20.662798           90           90           90 
  204000    230.24125   -11116.398    -10079.39   -11116.398            0     2966.662    46.636514    20.104733    20.933347            0            0            0    19627.413    2106.3905    4137.5529    2656.0425   -212.79034   -309.90748   -228.78082    46.636514    20.104733    20.933347           90           90           90 
  204500    226.78445   -11114.271   -10092.833   -11114.271            0    2913.9513    46.986698    19.899498    20.841218            0            0            0    19486.782    1494.6504    4366.1578    2881.0457   -143.95442    257.87241    370.56542    46.986698    19.899498    20.841218           90           90           90 
  205000    227.93542    -11139.27   -10112.648    -11139.27            0     2085.031    46.885283    20.063654    20.857408            0            0            0    19620.358    2651.2774    1310.3868    2293.4288    1.3110162    -471.6084    444.93889    46.885283    20.063654    20.857408           90           90           90 
  205500    235.82764   -11113.052   -10050.883   -11113.052            0    4574.4154     46.50996    19.981861    20.862049            0            0            0    19388.262    4645.5049    4093.5113      4984.23   -449.60777   -389.21531    1870.0995     46.50996    19.981861    20.862049           90           90           90 
  206000    221.19651   -11110.433   -10114.163   -11110.433            0    4134.8424    46.663669    19.986915    20.947988            0            0            0    19537.408    4409.2522     4370.139    3625.1361    113.45638    341.04156    345.80765    46.663669    19.986915    20.947988           90           90           90 
  206500    230.14515   -11067.813   -10031.238   -11067.813            0    4168.8197    47.074906    20.030994    20.645952            0            0            0    19468.247    4001.1765    4093.4994    4411.7831   -313.01955   -294.79161   -589.92918    47.074906    20.030994    20.645952           90           90           90 
  207000     229.2856   -11099.439   -10066.736   -11099.439            0    2070.7366    46.912849    19.941272     20.96889            0            0            0    19616.437    2237.7234    2332.0652    1642.4213   -228.82298    8.0697887     163.3671    46.912849    19.941272     20.96889           90           90           90 
  207500    228.94109    -11111.72   -10080.569    -11111.72            0    3040.9687    46.827743    20.085708    20.854159            0            0            0    19614.762    2269.0904    3829.9961    3023.8195    189.90291    20.008601    383.07678    46.827743    20.085708    20.854159           90           90           90 
  208000    226.67573   -11097.598   -10076.649   -11097.598            0      2537.05    47.244906    20.045651    20.752677            0            0            0    19653.925    2425.9038    2115.7197    3069.5266   -84.681091    328.18177    611.54667    47.244906    20.045651    20.752677           90           90           90 
  208500    233.89569   -11114.576   -10061.109   -11114.576            0    2401.8574     46.69085    20.024733    21.032846            0            0            0    19665.119    1834.9312    3196.4697    2174.1714    52.321682    31.854331   -228.32009     46.69085    20.024733    21.032846           90           90           90 
  209000    240.86598   -11105.444   -10020.583   -11105.444            0    3423.6555    46.804757    20.086288    20.847349            0            0            0    19599.299    3985.4602    2944.2656    3341.2407   -156.99171   -66.786214   -7.6464074    46.804757    20.086288    20.847349           90           90           90 
  209500    230.58239   -11089.851   -10051.307   -11089.851            0    2793.3323     47.04469    20.027927    20.701142            0            0            0    19504.774    1680.7085    3500.9848    3198.3037    332.35677   -250.82506    1093.3724     47.04469    20.027927    20.701142           90           90           90 
  210000    224.20615   -11115.184   -10105.358   -11115.184            0     2657.536    46.505483    20.059261     20.99594            0            0            0     19586.39    3112.4266    2371.1853    2488.9962   -255.64301   -116.19686    50.584408    46.505483    20.059261     20.99594           90           90           90 
  210500    233.91953   -11123.186   -10069.611   -11123.186            0    2657.2447    46.919534    20.060799      20.8858            0            0            0     19658.62    3078.8396    2659.4724    2233.4222    -130.1872   -755.39051    -493.9895    46.919534    20.060799      20.8858           90           90           90 
  211000    235.43053   -11131.085   -10070.705   -11131.085            0    4204.6976    46.799704    20.054582    20.764022            0            0            0    19488.041    3336.7516    4766.2027    4511.1386    142.63748   -264.87451   -57.930653    46.799704    20.054582    20.764022           90           90           90 
  211500    227.73098   -11166.517   -10140.816   -11166.517            0    3684.7946    46.830451    19.976321      20.8538            0            0            0    19508.732    3213.2595    4624.9095    3216.2147   -422.69706    -294.2565    172.08602    46.830451    19.976321      20.8538           90           90           90 
  212000     226.7629   -11111.143   -10089.802   -11111.143            0    3009.5037     46.41824    20.118003      20.9651            0            0            0    19578.098    2378.7787    3575.7312    3074.0012   -307.64482      288.943    154.94801     46.41824    20.118003      20.9651           90           90           90 
  212500    238.46927    -11110.88   -10036.813    -11110.88            0    3236.4032    46.998959    20.098683    20.791351            0            0            0    19639.868      4428.79    2125.9112    3154.5085     321.2166   -68.743659    1060.4513    46.998959    20.098683    20.791351           90           90           90 
  213000    229.14671   -11158.532   -10126.455   -11158.532            0    3014.5341    46.672957    20.040734    20.906762            0            0            0    19555.356    4073.9691    2969.0704    2000.5629    148.80948   -228.65615   -64.060603    46.672957    20.040734    20.906762           90           90           90 
  213500    230.19454   -11092.019   -10055.222   -11092.019            0    2885.0418    46.661103    20.066626    20.989377            0            0            0    19653.002    4015.7775    1674.6301    2964.7179   -463.50768   -165.17261   -522.88804    46.661103    20.066626    20.989377           90           90           90 
  214000    232.01555    -11098.98   -10053.981    -11098.98            0    2990.3702     46.94569    20.159532    20.700102            0            0            0    19590.642    2813.8445    2493.4819    3663.7843    72.620913    372.45896    96.979235     46.94569    20.159532    20.700102           90           90           90 
  214500    233.73032   -11132.302    -10079.58   -11132.302            0    2658.2162    46.686741    20.019092    20.976466            0            0            0    19605.154     3011.594    2984.0069    1979.0477   -407.60312   -93.414361    654.60922    46.686741    20.019092    20.976466           90           90           90 
  215000    220.30227    -11139.22   -10146.978    -11139.22            0    1696.8795    47.007766    20.067404    20.933243            0            0            0    19746.827    1925.2409    1350.9022    1814.4954   -39.366241    933.75107    445.10322    47.007766    20.067404    20.933243           90           90           90 
  215500    227.22744    -11083.76   -10060.327    -11083.76            0    3277.9757    46.950598    20.009271    20.807905            0            0            0    19547.929    1959.6288    4631.9646    3242.3336    723.12996   -312.18796   -204.19056    46.950598    20.009271    20.807905           90           90           90 
  216000    226.38035   -11108.513   -10088.895   -11108.513            0    3630.6317    46.720725    19.980782    20.928767            0            0            0    19537.351    3338.8157    4456.2307    3096.8487     127.3639    45.629046   -67.898045    46.720725    19.980782    20.928767           90           90           90 
  216500    236.30571   -11128.009   -10063.687   -11128.009            0    2956.9298    46.859094    20.022274    20.838209            0            0            0    19550.942    2667.3649    3359.2021    2844.2224   -6.7920597    39.932202    1314.6613    46.859094    20.022274    20.838209           90           90           90 
  217000    235.89672   -11118.858   -10056.379   -11118.858            0    2008.7102     46.80652    20.197291      20.7998            0            0            0    19663.401    2599.4629    1108.2948    2318.3727   -404.79196   -210.47742   -75.486336     46.80652    20.197291      20.7998           90           90           90 
  217500    225.59234   -11104.622   -10088.553   -11104.622            0    2591.7647    46.692422    19.992336    20.940606            0            0            0    19547.859      3129.91    2540.2135    2105.1706     268.3427    404.43698    708.57503    46.692422    19.992336    20.940606           90           90           90 
  218000    230.53068   -11123.749   -10085.438   -11123.749            0    2070.5452    46.676456    20.096893    20.873505            0            0            0    19580.428    1627.6507    2620.4767     1963.508   -147.55213    16.387655    392.34737    46.676456    20.096893    20.873505           90           90           90 
  218500    235.38857   -11113.227   -10053.036   -11113.227            0    3038.4629    46.997584    19.999806    20.725043            0            0            0     19480.35    2436.2733    3381.6823    3297.4332    113.53502   -872.76245    112.90047    46.997584    19.999806    20.725043           90           90           90 
  219000    233.27275   -11144.167   -10093.506   -11144.167            0    2592.3569    46.710582    20.092505    20.943635            0            0            0    19656.284    2887.6363    2216.8192    2672.6151    188.56258    1066.0071   -184.23863    46.710582    20.092505    20.943635           90           90           90 
  219500    223.43964   -11128.192   -10121.819   -11128.192            0    3382.9689     46.88196    20.063012    20.795349            0            0            0    19559.966    2513.5546    3921.6962     3713.656    197.81913   -336.26207    531.89171     46.88196    20.063012    20.795349           90           90           90 
  220000    237.82155   -11142.159   -10071.009   -11142.159            0    3535.1411    46.824904    20.049132    20.764703            0            0            0    19493.876    3580.6773    3410.2303    3614.5157   -394.91024    35.736327    695.19453    46.824904    20.049132    20.764703           90           90           90 
  220500     226.5623   -11125.515   -10105.078   -11125.515            0    2835.8059    46.716917    20.105551    20.893977            0            0            0    19625.072    2776.9607    2670.0618    3060.3952   -229.48579   -465.84557   -254.54273    46.716917    20.105551    20.893977           90           90           90 
  221000    229.59116   -11101.532   -10067.452   -11101.532            0    3815.3757    46.739268    19.925482    21.010684            0            0            0    19567.302    4156.2517    4414.3966    2875.4789    38.700956    130.99127    1184.9752    46.739268    19.925482    21.010684           90           90           90 
  221500    229.55806   -11118.264   -10084.333   -11118.264            0    2844.9668    46.793662    20.099055    20.640826            0            0            0    19412.869    2544.9989     1940.335    4049.5664   -280.46755   -341.14362    379.35832    46.793662    20.099055    20.640826           90           90           90 
  222000    227.67642   -11150.972   -10125.517   -11150.972            0    3390.4981    46.800978    19.973281    20.889914            0            0            0    19527.246    4029.2962    3451.2464    2690.9515     -21.7589   -91.745812    23.481445    46.800978    19.973281    20.889914           90           90           90 
  222500    229.76352   -11108.635    -10073.78   -11108.635            0     2956.726    46.698146    20.025861    21.009335            0            0            0    19647.312    3101.5524    2876.5068    2892.1187   -455.12039    247.39217    209.36467    46.698146    20.025861    21.009335           90           90           90 
  223000    236.24802   -11102.061   -10037.999   -11102.061            0    3585.9825      46.9721      20.0069    20.790243            0            0            0    19537.965    3485.5528     3430.346    3842.0487    -67.97168    597.90903    408.77235      46.9721      20.0069    20.790243           90           90           90 
  223500    233.51576   -11111.324   -10059.568   -11111.324            0    3058.0316    46.518924     20.18847    20.842982            0            0            0    19574.601    2732.4799    2718.7773    3722.8377    -374.1157    453.91908    207.46432    46.518924     20.18847    20.842982           90           90           90 
  224000    230.51194   -11091.204   -10052.977   -11091.204            0    2836.5909    46.742246    20.135147    20.891423            0            0            0    19662.213    2480.6928     3764.708    2264.3719     38.63281    138.51063    407.26993    46.742246    20.135147    20.891423           90           90           90 
  224500    229.29806   -11117.486   -10084.727   -11117.486            0    2363.9803    46.747467    20.118603    20.875658            0            0            0    19633.426    2200.8747    1837.0903     3053.976    -221.0271   -344.34175   -113.83556    46.747467    20.118603    20.875658           90           90           90 
  225000    238.34945   -11118.872   -10045.345   -11118.872            0    3219.4217    46.782103    20.097279    20.729125            0            0            0    19489.378    3334.5859    2447.0092      3876.67        15.04   -21.344538    100.35062    46.782103    20.097279    20.729125           90           90           90 
  225500    229.88334   -11103.352   -10067.957   -11103.352            0     2579.249    46.667742    20.086645    20.932387            0            0            0    19621.986    2465.3894    2734.4161    2537.9414    74.041445    553.70924   -258.93791    46.667742    20.086645    20.932387           90           90           90 
  226000    227.25796   -11144.653   -10121.082   -11144.653            0    4296.9413    46.784249     19.86934    20.865171            0            0            0    19395.682    3908.5601    4848.3681    4133.8957   -371.10491    11.139987    137.35992    46.784249     19.86934    20.865171           90           90           90 
  226500    230.06864   -11125.935   -10089.705   -11125.935            0    1853.7002    46.752498     20.17579    20.903031            0            0            0    19717.173    1992.7172    1774.0292    1794.3543   -278.98528    861.52921   -11.668331    46.752498     20.17579    20.903031           90           90           90 
  227000    226.23941   -11115.187   -10096.204   -11115.187            0    3040.9567    46.949637    20.047522    20.815404            0            0            0    19591.955    2640.0915    3481.2902    3001.4884    277.23799    764.50269     347.0965    46.949637    20.047522    20.815404           90           90           90 
  227500    235.66192   -11130.369   -10068.947   -11130.369            0    4629.7508     46.58841    19.932118    20.917364            0            0            0    19423.983    4024.7743    5366.5155    4497.9627    76.034018   -198.31204    107.46392     46.58841    19.932118    20.917364           90           90           90 
  228000     229.3843   -11086.923   -10053.775   -11086.923            0    1928.4305    47.134664    20.016862    20.870021            0            0            0    19690.615     2370.817    1077.4666    2337.0079    29.089586   -86.221997   -83.688693    47.134664    20.016862    20.870021           90           90           90 
  228500    229.02906   -11081.865   -10050.318   -11081.865            0    2157.8564    46.976851    20.101074    20.711564            0            0            0    19557.622    1589.1921    2429.3934    2454.9837    49.427016    556.57705   -133.74004    46.976851    20.101074    20.711564           90           90           90 
  229000    235.90803   -11130.332   -10067.802   -11130.332            0    3114.2237    46.614555    20.030876    20.984136            0            0            0    19593.525     3971.299    2151.6105    3219.7617   -73.545464    41.025471    830.71436    46.614555    20.030876    20.984136           90           90           90 
  229500    226.00542    -11092.51   -10074.581    -11092.51            0    1644.3528    46.635022    20.167238     20.96853            0            0            0    19720.894    2244.4918    1809.5443    879.02217    2.0155835   -313.70352   -392.27375    46.635022    20.167238     20.96853           90           90           90 
  230000    228.14118   -11145.681   -10118.133   -11145.681            0    3135.0347    46.859181     20.06452    20.738769            0            0            0    19498.735    2671.8552    3951.3188      2781.93    180.08418   -8.3743878   -423.54011    46.859181     20.06452    20.738769           90           90           90 
  230500    232.75066   -11147.786   -10099.476   -11147.786            0     2422.982    46.676134    20.043757    20.920018            0            0            0    19572.038    2803.9579    2862.1947    1602.7934    41.668534   -328.09205    34.911635    46.676134    20.043757    20.920018           90           90           90 
  231000    227.50037   -11071.266   -10046.603   -11071.266            0    2254.9892    46.967564    19.986539    20.951409            0            0            0    19667.486    2517.7198     2842.816    1404.4319    454.70755   -225.18724    295.24322    46.967564    19.986539    20.951409           90           90           90 
  231500    228.63142   -11141.982   -10112.225   -11141.982            0    2813.9219    47.172486      19.9731    20.716119            0            0            0    19518.328    2045.8241    3377.7848    3018.1569    228.35166    533.28964    478.13956    47.172486      19.9731    20.716119           90           90           90 
  232000    229.25372   -11125.635   -10093.076   -11125.635            0    3141.9476    46.793151    20.002945    20.865422            0            0            0    19530.053     3910.887    2682.0004    2832.9553   -206.95343    -182.9639    293.18921    46.793151    20.002945    20.865422           90           90           90 
  232500    227.45372   -11115.527   -10091.075   -11115.527            0    2603.3991    46.744837    20.096643    20.945646            0            0            0    19676.639    2611.1557    3146.5753    2052.4662    135.56196    191.40611    177.81135    46.744837    20.096643    20.945646           90           90           90 
  233000    235.70396   -11133.586   -10071.975   -11133.586            0    3442.8276    46.713235    20.018884    20.807614            0            0            0    19458.174    3743.9492    3323.1505     3261.383   -210.05581   -271.95483    1015.3632    46.713235    20.018884    20.807614           90           90           90 
  233500    227.83788   -11093.572   -10067.389   -11093.572            0    2891.8641    46.727199    19.987264    21.056473            0            0            0    19665.669    2794.3554    4563.5141    1317.7226    79.564087    524.53739    607.24186    46.727199    19.987264    21.056473           90           90           90 
  234000    226.43644    -11095.45   -10075.579    -11095.45            0    3380.9801    46.941631    20.017071    20.789802            0            0            0    19534.805    2994.3597     3872.888    3275.6926    -143.9232    776.05973    515.08542    46.941631    20.017071    20.789802           90           90           90 
  234500      230.351   -11146.131   -10108.629   -11146.131            0    3270.6251    46.974394    19.995111    20.755622            0            0            0    19494.888    2408.7765    3598.0359    3805.0628    55.388795    445.47811    1037.9297    46.974394    19.995111    20.755622           90           90           90 
  235000    230.36333   -11146.848   -10109.291   -11146.848            0     3793.272    46.668296    20.000223    20.899396            0            0            0    19507.001    4651.7285    3957.8729    2770.2145    46.174709   -930.88073   -208.88219    46.668296    20.000223    20.899396           90           90           90 
  235500    239.27936     -11066.1    -9988.385     -11066.1            0    3267.6878    46.866008    20.134982    20.840251            0            0            0    19665.824      4190.62    1960.6137    3651.8296   -466.99119    223.52947    669.26502    46.866008    20.134982    20.840251           90           90           90 
  236000    230.36769   -11144.918   -10107.342   -11144.918            0    3267.0905    46.603979    20.247579    20.607108            0            0            0    19445.233    2979.1913    2865.7156    3956.3648   -201.87109     222.6011    527.87468    46.603979    20.247579    20.607108           90           90           90 
  236500    234.08612   -11142.916   -10088.591   -11142.916            0    2718.1134    46.788896      20.0462    20.943435            0            0            0    19643.677    3799.1079     1916.469    2438.7634   -760.02132   -715.20005    382.19348    46.788896      20.0462    20.943435           90           90           90 
  237000    227.45442   -11114.671   -10090.216   -11114.671            0    3356.4369    46.890161    20.028731    20.787472            0            0            0    19522.563    2850.8563    3849.9643    3368.4901    -232.1195   -1119.3017   -210.14906    46.890161    20.028731    20.787472           90           90           90 
  237500    227.53859    -11160.82   -10135.985    -11160.82            0    5281.2636    46.726164    19.933742    20.759326            0            0            0    19335.803    5164.6776    5381.9649    5297.1482   -309.06151    71.377639   -649.89044    46.726164    19.933742    20.759326           90           90           90 
  238000     237.3306   -11120.985   -10052.047   -11120.985            0    1489.6424    46.792615    20.094937     21.03233            0            0            0    19776.587    1624.6406    1527.3453    1316.9413    86.589742   -397.48843   -450.01233    46.792615    20.094937     21.03233           90           90           90 
  238500    227.57105   -11109.186   -10084.205   -11109.186            0    2411.7678    46.911529     20.04123    20.830319            0            0            0     19583.93    1834.6148    2455.7457    2944.9429   -76.602861    696.32528   -128.78994    46.911529     20.04123    20.830319           90           90           90 
  239000    232.79398   -11124.878   -10076.373   -11124.878            0    3618.8877    46.646638    20.174321    20.793114            0            0            0    19567.657    3911.9688    2882.5053    4062.1889   -230.58059   -191.43912    825.27052    46.646638    20.174321    20.793114           90           90           90 
  239500    234.48268   -11080.115   -10024.004   -11080.115            0    2273.3061    46.691568    20.035522     21.01474            0            0            0    19659.078    2993.0571    1362.0674     2464.794   -465.41276   -558.32934    -372.2632    46.691568    20.035522     21.01474           90           90           90 
  240000    219.45086   -11088.053   -10099.646   -11088.053            0     2937.579    47.067861    19.927499    20.832765            0            0            0    19539.982    2777.0421    3017.7919     3017.903     121.3855    769.95683    267.01642    47.067861    19.927499    20.832765           90           90           90 
  240500    229.98108   -11127.059   -10091.223   -11127.059            0    3134.9303    46.918408    20.022908    20.771784            0            0            0    19513.906    2490.5293    3300.3851    3613.8763   -155.66299   -416.54246    165.83084    46.918408    20.022908    20.771784           90           90           90 
  241000    231.82584   -11141.922   -10097.777   -11141.922            0    3798.0378    46.882252    19.914862    20.957893            0            0            0    19567.411    4116.4734    4119.5341    3158.1058    260.62696    392.16902   -467.40666    46.882252    19.914862    20.957893           90           90           90 
  241500    238.32814   -11083.962   -10010.531   -11083.962            0    2661.9121    46.857494     20.09162    20.820302            0            0            0    19601.127    3546.5081    1809.0398    2630.1884    352.12779   -20.939262   -56.006415    46.857494     20.09162    20.820302           90           90           90 
  242000    230.68589   -11102.276   -10063.266   -11102.276            0    2312.9143    46.825886    20.022403    20.909441            0            0            0    19603.997      1907.63    2799.9685    2231.1444   -175.48642    385.46739    1.6494919    46.825886    20.022403    20.909441           90           90           90 
  242500    227.82482    -11067.14   -10041.016    -11067.14            0    3437.0572    46.596532    19.981591    21.055445            0            0            0    19604.153    3352.4826    4407.0015    2551.6875   -265.93714    583.44998   -347.03207    46.596532    19.981591    21.055445           90           90           90 
  243000    230.53855   -11103.732   -10065.386   -11103.732            0    2885.4959    47.192171    20.092448     20.68679            0            0            0    19615.343    1780.3154    3924.8463    2951.3261    -378.5577    252.65774    328.58062    47.192171    20.092448     20.68679           90           90           90 
  243500     226.0768   -11125.589   -10107.338   -11125.589            0    2582.7212    46.792365    19.994384    20.957583            0            0            0    19607.589    2411.0962     2565.559    2771.5085   -262.81095   -23.761592     277.6721    46.792365    19.994384    20.957583           90           90           90 
  244000    232.59924   -11111.936   -10064.308   -11111.936            0    2808.1959    47.006086    19.952634    20.865798            0            0            0    19569.933    2102.5432    2759.4377    3562.6067    115.36717    103.82041    687.86549    47.006086    19.952634    20.865798           90           90           90 
  244500    231.38777   -11088.524   -10046.352   -11088.524            0    2603.8657    46.891221    20.204973     20.68711            0            0            0     19599.71    2035.5703    2285.7589    3490.2678    474.17503    73.486597    490.95123    46.891221    20.204973     20.68711           90           90           90 
  245000    233.03245   -11111.245   -10061.666   -11111.245            0    2751.8499    46.772202    20.049731    20.898454            0            0            0    19597.944    4012.8546    1824.4032    2418.2918    153.13222   -474.98008   -260.34695    46.772202    20.049731    20.898454           90           90           90 
  245500    241.08421   -11095.259   -10009.415   -11095.259            0     2746.278    46.993653    19.951809     20.92324            0            0            0    19617.805    2525.7012    3502.5004    2210.6325   -573.51116   -1182.2403    267.63366    46.993653    19.951809     20.92324           90           90           90 
  246000    227.06306   -11107.939   -10085.246   -11107.939            0    3187.7665    46.966049    19.902448    20.864285            0            0            0    19502.669    3316.9615    3257.3961     2988.942    85.696415    755.34226   -677.74825    46.966049    19.902448    20.864285           90           90           90 
  246500    234.93971   -11161.901   -10103.732   -11161.901            0    2868.7331    46.929212    20.184643    20.669728            0            0            0    19579.388    1632.6593    3736.2927    3237.2474    34.494471    717.84321   -416.33412    46.929212    20.184643    20.669728           90           90           90 
  247000    235.17217   -11108.293   -10049.076   -11108.293            0    3265.5572    46.770627    19.977172    20.962495            0            0            0      19586.2      4292.89    3522.7739    1981.0078   -286.09091    955.51877   -540.00242    46.770627    19.977172    20.962495           90           90           90 
  247500    222.73165   -11130.156   -10126.972   -11130.156            0    3341.5036     46.61293    20.096033    20.814663            0            0            0    19497.823    5001.4747    2461.8317    2561.2045   -183.75373    863.18875   -1.7498419     46.61293    20.096033    20.814663           90           90           90 
  248000    218.94699   -11120.698    -10134.56   -11120.698            0    2675.2657    46.904623    20.109176    20.848259            0            0            0    19664.356    2452.2313    3436.6719    2136.8938    706.67361      810.887    549.47985    46.904623    20.109176    20.848259           90           90           90 
  248500    229.85847   -11096.473    -10061.19   -11096.473            0    3541.8967    46.661203    20.053543    20.840528            0            0            0     19500.95    4178.0295    3243.0413    3204.6191   -195.72844   -637.10538   -1263.4009    46.661203    20.053543    20.840528           90           90           90 
  249000    222.61556   -11106.618   -10103.957   -11106.618            0    2518.2116    47.062913    19.990857    20.866145            0            0            0    19631.453    1819.7689    3346.6343    2388.2316   -90.723954    353.04288    839.22953    47.062913    19.990857    20.866145           90           90           90 
  249500    219.95116   -11113.401    -10122.74   -11113.401            0    3141.7682    46.974761    19.960711    20.824177            0            0            0    19525.782    2743.0016    4173.2769    2509.0262   -163.61317   -36.886574   -5.7121121    46.974761    19.960711    20.824177           90           90           90 
  250000    233.45673    -11083.43    -10031.94    -11083.43            0    3099.0802    46.870689    20.051405    20.820153            0            0            0    19567.263    3671.2606    2576.5337    3049.4465   -186.95288    1305.0435    99.927056    46.870689    20.051405    20.820153           90           90           90 
  250500    227.97573   -11093.392   -10066.588   -11093.392            0    2359.2117    46.568046    20.138603    20.969926            0            0            0    19665.919    3470.0764    2173.7734    1433.7854    94.836781   -446.78352    -181.0149    46.568046    20.138603    20.969926           90           90           90 
  251000     233.0556   -11103.216   -10053.532   -11103.216            0    3601.6321    46.791702    20.003687    20.805846            0            0            0    19474.409    3554.9607    2766.6049    4483.3307   -164.83182    262.80292    362.35966    46.791702    20.003687    20.805846           90           90           90 
  251500    232.83742   -11115.368   -10066.667   -11115.368            0    3420.6378     46.94652    20.062663    20.886347            0            0            0     19672.27    3769.1402    3133.2057    3359.5675    231.62535    1337.6185     499.4614     46.94652    20.062663    20.886347           90           90           90 
  252000    227.68802   -11163.236   -10137.728   -11163.236            0    3844.5877    46.748245    19.938971    20.847062            0            0            0    19431.795    4339.9525    4392.2397    2801.5709   -152.10763    343.98751    904.59275    46.748245    19.938971    20.847062           90           90           90 
  252500    226.09867   -11085.369    -10067.02   -11085.369            0    3703.0181    46.649098    20.032772    20.898064            0            0            0    19529.466    4276.3443    3592.9533    3239.7566   -530.88972   -277.41399    46.437164    46.649098    20.032772    20.898064           90           90           90 
  253000    233.50882   -11146.662   -10094.937   -11146.662            0    2494.7574    46.881726    20.086804     20.87049            0            0            0    19653.824    2985.6773    2172.2007    2326.3943   -183.05924   -331.97539    -330.4416    46.881726    20.086804     20.87049           90           90           90 
  253500    235.46723   -11115.026   -10054.481   -11115.026            0    3368.1618      46.7713    19.988789    20.812294            0            0            0    19457.448    2808.1817    3640.8515    3655.4523   -104.25792   -13.872773    786.28373      46.7713    19.988789    20.812294           90           90           90 
  254000    232.92717   -11141.302   -10092.197   -11141.302            0    1884.3855    46.819206    20.056241    20.958043            0            0            0    19679.965    1679.8274    2238.1164    1735.2127   -231.39182    535.26171   -219.82108    46.819206    20.056241    20.958043           90           90           90 
  254500    239.61894   -11128.016   -10048.771   -11128.016            0    2671.1871    47.020137    20.032562     20.85619            0            0            0     19645.15    2432.3323     3038.376    2542.8529    142.00127     1310.744     6.072115    47.020137    20.032562     20.85619           90           90           90 
  255000    225.30845   -11106.704   -10091.914   -11106.704            0    3640.6184    46.854999    20.092942    20.754471            0            0            0    19539.396    3319.1964    3517.2436    4085.4151   -204.74156   -594.78172    237.59296    46.854999    20.092942    20.754471           90           90           90 
  255500    222.57847   -11107.407   -10104.912   -11107.407            0    3581.3913    46.579512    19.967246    21.064167            0            0            0    19591.036    3549.4613    3706.2953    3488.4173   -212.37199   -449.75285   -27.334724    46.579512    19.967246    21.064167           90           90           90 
  256000    230.00276   -11076.366   -10040.432   -11076.366            0    2394.0866    46.786171    20.078622    20.788286            0            0            0    19528.554    1991.0224    2825.1429    2366.0944    204.14209   -652.50985   -94.624626    46.786171    20.078622    20.788286           90           90           90 
  256500     235.4304   -11132.392   -10072.012   -11132.392            0     3371.338    46.878303    20.085765    20.713004            0            0            0    19503.086    2550.0329    4195.6817    3368.2993   -22.893875    403.05271   -119.91094    46.878303    20.085765    20.713004           90           90           90 
  257000     225.0826   -11068.417   -10054.645   -11068.417            0    2205.6151    46.928497    20.007544    20.996008            0            0            0    19713.656    1698.6051    2487.8684    2430.3717    320.84148   -284.68187    557.68372    46.928497    20.007544    20.996008           90           90           90 
  257500    218.57347   -11099.673   -10115.217   -11099.673            0    4407.4393    46.929955    19.929194    20.793621            0            0            0    19447.778     3441.102    4834.9022    4946.3137    205.33927    470.82312    381.07109    46.929955    19.929194    20.793621           90           90           90 
  258000    223.54375   -11098.772    -10091.93   -11098.772            0    3440.3076     46.77005    20.135347    20.703185            0            0            0    19496.835    3692.1849    3201.2949     3427.443   -203.11102      166.384    496.62547     46.77005    20.135347    20.703185           90           90           90 
  258500    226.73737   -11112.316    -10091.09   -11112.316            0    2984.0637    46.721944    20.048463     20.92946            0            0            0    19604.691    2876.1959     3356.669    2719.3262   -470.67707   -165.82652   -275.09031    46.721944    20.048463     20.92946           90           90           90 
  259000    236.80853    -11144.23   -10077.643    -11144.23            0    3453.4931    46.869459    20.008761    20.913296            0            0            0    19612.485    3573.6075    3860.5157    2926.3561    164.68373   -684.34609   -280.57032    46.869459    20.008761    20.913296           90           90           90 
  259500    230.67694   -11126.405   -10087.435   -11126.405            0    3569.3281    47.020981    20.000733    20.680992            0            0            0    19449.523    3180.0649     4504.121    3023.7983   -257.96952    213.88912    889.40854    47.020981    20.000733    20.680992           90           90           90 
  260000    218.64325   -11116.369   -10131.599   -11116.369            0     4024.841    46.773097    19.928146    20.810339            0            0            0    19397.339    3964.8625    4288.6211    3821.0394    135.13004     -104.667    294.96486    46.773097    19.928146    20.810339           90           90           90 
  260500    232.69013   -11129.481   -10081.444   -11129.481            0     2847.666    46.748961    20.033086     20.91863            0            0            0     19590.84    4804.4027    1006.9498    2731.6455    39.335588   -363.52596    1002.4185    46.748961    20.033086     20.91863           90           90           90 
  261000    227.50863   -11115.475   -10090.775   -11115.475            0    3603.7635    46.628258    20.071629    20.866417            0            0            0    19528.986    3381.5163    4107.4584    3322.3159    180.48285    687.66415    235.49371    46.628258    20.071629    20.866417           90           90           90 
  261500    234.49815   -11100.074   -10043.893   -11100.074            0     2682.916    47.004734    20.069744    20.867885            0            0            0    19686.199    2784.2004     1735.942    3528.6056   -120.92381   -166.12928   -173.95091    47.004734    20.069744    20.867885           90           90           90 
  262000    230.65339   -11079.054    -10040.19   -11079.054            0    2326.6058    46.922728    19.964361    20.990165            0            0            0    19663.215    1417.7897    3779.7828     1782.245   -166.53875    369.10974   -305.10794    46.922728    19.964361    20.990165           90           90           90 
  262500    228.69189   -11148.321   -10118.291   -11148.321            0    3585.7731     47.03125    20.057671    20.725722            0            0            0    19551.347    3963.9574    3119.1875    3674.1744    65.460175   -65.148678   -579.27728     47.03125    20.057671    20.725722           90           90           90 
  263000    235.10391   -11081.609     -10022.7   -11081.609            0    2507.7017    47.023107    20.096458    20.854408            0            0            0    19707.371    1462.2528    3571.4024    2489.4499   -41.048034   -390.58862   -128.31645    47.023107    20.096458    20.854408           90           90           90 
  263500    232.59036   -11096.487   -10048.899   -11096.487            0    3270.7623    46.547946    20.042663    20.953723            0            0            0    19548.667    2674.4523     3702.713    3435.1214   -419.43373    405.39725    487.03034    46.547946    20.042663    20.953723           90           90           90 
  264000    224.33048   -11098.171   -10087.785   -11098.171            0    3101.7384    46.802202    20.114808    20.794004            0            0            0    19575.835    3546.9475    2752.8694    3005.3984   -61.799547    689.52929   -237.84977    46.802202    20.114808    20.794004           90           90           90 
  264500    228.38862   -11114.535   -10085.871   -11114.535            0    3197.3603    46.794698    20.023834    20.874613            0            0            0    19559.706    2409.8609    4224.4696    2957.7502    93.713347    131.75086   -157.02866    46.794698    20.023834    20.874613           90           90           90 
  265000    234.83995    -11125.86    -10068.14    -11125.86            0    3999.1184    46.847836    19.928129     20.87087            0            0            0     19484.83    4514.1912    3967.8007    3515.3633   -373.54467   -768.42465   -826.75579    46.847836    19.928129     20.87087           90           90           90 
  265500    228.52598   -11126.964   -10097.682   -11126.964            0    3044.1725    46.961496    19.990321    20.817362            0            0            0    19542.827    2473.4517    3647.5009    3011.5648   -10.332023    147.06317    184.60121    46.961496    19.990321    20.817362           90           90           90 
  266000    220.33675   -11107.973   -10115.576   -11107.973            0    3159.3443    46.883451     20.05033    20.871733            0            0            0    19620.027     2270.028    3266.7992    3941.2057   -168.88011    945.70134    1610.0251    46.883451     20.05033    20.871733           90           90           90 
  266500    231.62706   -11116.027   -10072.777   -11116.027            0    2798.4371    46.639186    20.094583    20.899614            0            0            0    19587.014    2990.9159    3033.5219    2370.8735     89.74456    628.71219   -393.56185    46.639186    20.094583    20.899614           90           90           90 
  267000    228.77868   -11059.699   -10029.279   -11059.699            0    3036.8751    46.961892    20.077243    20.869827            0            0            0    19677.436    3446.5711    2506.1044      3157.95   -300.05064    200.92242   -148.34188    46.961892    20.077243    20.869827           90           90           90 
  267500    221.87098   -11085.938    -10086.63   -11085.938            0    2570.8261    46.707778     20.09049    20.897626            0            0            0    19609.959    2978.5701    2191.8671    2542.0411    308.81699   -828.51596   -32.181237    46.707778     20.09049    20.897626           90           90           90 
  268000    223.84406   -11125.646   -10117.452   -11125.646            0    3741.2329    46.672666     19.98615    20.872776            0            0            0     19470.27    3560.4522    3959.8123    3703.4341   -109.76243   -519.24036    925.42553    46.672666     19.98615    20.872776           90           90           90 
  268500    234.40632   -11142.796   -10087.029   -11142.796            0    3035.2393    47.016332      19.9968    20.788341            0            0            0    19544.703    2824.2852    3106.9219    3174.5107   -179.44667   -863.86535   -315.91535    47.016332      19.9968    20.788341           90           90           90 
  269000    222.01161   -11128.036   -10128.095   -11128.036            0    2808.5606    47.021764    20.072979    20.817056            0            0            0     19648.53    2400.0944    2989.6695    3035.9179   -32.264255    -139.6066    409.73229    47.021764    20.072979    20.817056           90           90           90 
  269500    238.93883   -11094.506   -10018.324   -11094.506            0    2856.8874    46.515175    19.967254    21.128531            0            0            0    19623.764     3514.505    3573.4849    1482.6724    15.545898   -1251.9196    32.081546    46.515175    19.967254    21.128531           90           90           90 
  270000    234.15616   -11130.187   -10075.547   -11130.187            0    3440.8215    46.765527    20.101729    20.761838            0            0            0    19517.539    3740.0493    3195.6259    3386.7894   -132.37854     525.1062   -242.18393    46.765527    20.101729    20.761838           90           90           90 
  270500    226.96523   -11131.146   -10108.894   -11131.146            0    3805.6913    46.694843    20.027503     20.85365            0            0            0     19501.94    3133.6027    3570.8874    4712.5837   -85.715986   -587.05405    500.05852    46.694843    20.027503     20.85365           90           90           90 
  271000    219.85211   -11088.164   -10097.949   -11088.164            0    2461.8758    46.776989    19.966965     21.00373            0            0            0    19617.368    2403.8018    2692.7295    2289.0962   -552.59171   -234.27298   -180.32124    46.776989    19.966965     21.00373           90           90           90 
  271500    239.23197    -11106.43   -10028.929    -11106.43            0    4815.1516    46.892277    19.993614    20.716548            0            0            0    19422.719    5376.3504    4358.9036    4710.2007     2.428566    243.26956   -189.04148    46.892277    19.993614    20.716548           90           90           90 
  272000    233.67869     -11122.9    -10070.41     -11122.9            0    2597.3135    46.866355    20.026996    20.942826            0            0            0    19656.775    3449.3927      2104.82    2237.7276   -98.300606   -326.24996    352.61701    46.866355    20.026996    20.942826           90           90           90 
  272500    230.69449   -11101.859    -10062.81   -11101.859            0    2771.8224    46.822817    19.990194    20.909861            0            0            0    19571.572    2704.7155    3247.3179    2363.4339    200.77783   -470.54602    256.85031    46.822817    19.990194    20.909861           90           90           90 
  273000    237.02442   -11133.347   -10065.788   -11133.347            0    2475.7056    46.758723    20.156272    20.757344            0            0            0    19563.414    3042.0151     1208.607    3176.4947   -45.358062   -43.620539     107.0891    46.758723    20.156272    20.757344           90           90           90 
  273500    230.54211   -11101.067   -10062.705   -11101.067            0    2320.6086    46.742451    20.096459    20.856614            0            0            0    19591.822    2937.8373    2307.5717    1716.4169    141.56675    533.99517    437.24006    46.742451    20.096459    20.856614           90           90           90 
  274000    225.33923   -11100.816   -10085.887   -11100.816            0    2275.9681    46.693763    20.055197       21.025            0            0            0    19688.917    2634.3296    2708.0157    1485.5589    139.53352    -273.3481    1217.0475    46.693763    20.055197       21.025           90           90           90 
  274500    225.82652   -11127.552   -10110.429   -11127.552            0    3443.8703     47.02402    19.975558    20.698713            0            0            0    19442.943    3290.4476    3124.0667    3917.0966    156.00616    318.56563    266.56774     47.02402    19.975558    20.698713           90           90           90 
  275000    229.25157    -11133.58    -10101.03    -11133.58            0    3835.0842    46.738173    19.986325    20.875879            0            0            0    19500.666     4374.603    3701.4666    3429.1829    266.81248    40.717356   -104.59613    46.738173    19.986325    20.875879           90           90           90 
  275500    219.32053   -11118.997   -10131.176   -11118.997            0    2207.3401    46.952449    20.037831    20.919523            0            0            0    19681.615    901.52128    3588.9238    2131.5753   -45.983243    98.563033    -437.4496    46.952449    20.037831    20.919523           90           90           90 
  276000    232.57354   -11093.854   -10046.341   -11093.854            0    2728.0233    46.911715    20.215086    20.765082            0            0            0    19692.033    2346.5138    2861.9692    2975.5869   -162.81741    795.88103    304.45406    46.911715    20.215086    20.765082           90           90           90 
  276500    227.54791   -11138.051   -10113.174   -11138.051            0    2991.6693    46.684026    20.090059    20.877765            0            0            0    19580.939    4123.6039    2116.5412    2734.8628    415.65693   -29.397784    475.36789    46.684026    20.090059    20.877765           90           90           90 
  277000    233.16698    -11116.66   -10066.475    -11116.66            0    2228.8707     46.39591    20.192595    20.929698            0            0            0    19608.068      3053.83    2430.8913    1201.8908    200.70664    34.658449   -435.56524     46.39591    20.192595    20.929698           90           90           90 
  277500    227.57752   -11135.071   -10110.061   -11135.071            0    3171.7274     46.78458    20.116349    20.695301            0            0            0     19477.07    2771.2802    3233.1885    3510.7135   -254.79324   -353.81861    -151.4729     46.78458    20.116349    20.695301           90           90           90 
  278000    227.34568   -11126.573   -10102.608   -11126.573            0    3069.0472    46.820533    19.995179    20.886997            0            0            0    19554.092    3222.6289    2961.0417     3023.471   -556.62104   -404.92103   -156.29614    46.820533    19.995179    20.886997           90           90           90 
  278500    228.04888   -11109.233     -10082.1   -11109.233            0    1821.5102    47.132199    19.987879    20.917319            0            0            0    19705.635    2013.0429     1834.161    1617.3268   -89.416506    193.10774    465.23105    47.132199    19.987879    20.917319           90           90           90 
  279000    232.91603   -11104.895   -10055.841   -11104.895            0    2674.1001    46.755947     20.14372    20.770665            0            0            0    19562.616    2444.2108    2910.1316    2667.9578     184.1341     45.11306    194.73828    46.755947     20.14372    20.770665           90           90           90 
  279500    234.62998   -11135.145    -10078.37   -11135.145            0    3602.1258    46.529365    20.019725    20.947379            0            0            0     19512.59    4234.6214    3205.9511     3365.805   -121.69521    133.59798   -134.07273    46.529365    20.019725    20.947379           90           90           90 
  280000    237.67521    -11085.81   -10015.319    -11085.81            0    3525.6312    46.688977    20.119676    20.886295            0            0            0    19619.899    4471.5132    3566.4268    2538.9536   -136.73854    957.58863     488.5469    46.688977    20.119676    20.886295           90           90           90 
  280500    238.97335   -11097.832   -10021.495   -11097.832            0    3846.6859    46.900203    20.099975    20.761162            0            0            0      19571.4    2662.5021    4944.0538    3933.5017    39.463962   -1011.1416    868.57896    46.900203    20.099975    20.761162           90           90           90 
  281000    226.57278   -11100.969   -10080.485   -11100.969            0    3565.0774    46.970565    19.910591    20.907165            0            0            0    19552.625    3425.7737    3862.4767    3406.9817    638.01041    306.42586   -91.776965    46.970565    19.910591    20.907165           90           90           90 
  281500    229.52107   -11121.639   -10087.875   -11121.639            0    2801.1224    47.018592    19.974367    20.845378            0            0            0    19577.284    1942.7845    3796.1197    2664.4629   -14.330849    378.20759   -490.04886    47.018592    19.974367    20.845378           90           90           90 
  282000    232.98512   -11132.084   -10082.718   -11132.084            0    2953.7136    46.932207    20.008962    20.769345            0            0            0     19503.76    2314.8147    2815.0176    3731.3085    6.7683101     450.0915    684.02801    46.932207    20.008962    20.769345           90           90           90 
  282500    228.64385   -11113.673    -10083.86   -11113.673            0    3703.0041    46.491423    20.065298      20.9285            0            0            0     19523.45    3508.0007    4038.3355    3562.6762    277.18323    -60.69522    -645.1879    46.491423    20.065298      20.9285           90           90           90 
  283000    227.84783   -11107.112   -10080.884   -11107.112            0    2531.9481    46.727926    20.085732    20.928137            0            0            0    19642.409    2588.3788    2626.5066    2380.9589   -151.89269   -540.94065    155.16039    46.727926    20.085732    20.928137           90           90           90 
  283500    226.60861   -11120.978   -10100.332   -11120.978            0    4393.6331    46.665606    20.088279    20.695913            0            0            0    19401.005    4278.7107    3634.5388    5267.6498   -265.10537    -29.91326    712.63664    46.665606    20.088279    20.695913           90           90           90 
  284000    237.97929   -11117.375   -10045.516   -11117.375            0    3039.9561    46.816847    19.934989    20.937395            0            0            0    19540.731    3022.5246    3287.3495    2809.9943    -86.67753    298.95362   -215.94504    46.816847    19.934989    20.937395           90           90           90 
  284500    237.92407   -11110.991    -10039.38   -11110.991            0    3053.7184    46.797737    20.045467    20.797391            0            0            0    19509.668       2748.9    3481.9106    2930.3446    123.73635     63.55259    1791.5243    46.797737    20.045467    20.797391           90           90           90 
  285000    230.69252    -11130.85   -10091.809    -11130.85            0      2604.91    46.869668    20.105606    20.738087            0            0            0    19542.393    2403.8142    1990.9873    3419.9285   -56.578898    31.925894    729.37788    46.869668    20.105606    20.738087           90           90           90 
  285500     228.3788   -11098.956   -10070.337   -11098.956            0     1640.287    46.641423    20.173225    20.959463            0            0            0    19720.925    1748.9824    1470.9772    1700.9012    21.537458   -441.34808   -400.68429    46.641423    20.173225    20.959463           90           90           90 
  286000    226.58389   -11115.483   -10094.948   -11115.483            0    2798.9971      46.8185    20.040254    20.856926            0            0            0    19569.107    2977.8188    2668.8405    2750.3319    316.19744   -956.70752    190.74605      46.8185    20.040254    20.856926           90           90           90 
  286500    229.99554   -11072.875   -10036.975   -11072.875            0    3351.9658    47.269851    19.948182    20.792703            0            0            0    19606.429     2886.657    3575.5306    3593.7099   -409.99591    277.03565    641.58551    47.269851    19.948182    20.792703           90           90           90 
  287000    230.12728   -11120.278   -10083.784   -11120.278            0    2541.3238    47.003702    19.930585    20.955158            0            0            0    19631.029    2128.2058     2885.093    2610.6726    185.89412    -204.5152    160.20988    47.003702    19.930585    20.955158           90           90           90 
  287500    236.30377   -11078.814   -10014.501   -11078.814            0     2408.455    46.855994    20.167322    20.860474            0            0            0    19712.312     3273.239    1294.9224    2657.2034   -68.884617   -142.95537    359.59784    46.855994    20.167322    20.860474           90           90           90 
  288000    227.80944   -11145.655     -10119.6   -11145.655            0    4129.9085    46.555671    20.068409    20.742722            0            0            0    19379.889     4604.845    3082.9082    4701.9725    287.41638    617.09656    239.50088    46.555671    20.068409    20.742722           90           90           90 
  288500    227.67192   -11079.335   -10053.899   -11079.335            0    3238.2813    47.016046    20.008304    20.901023            0            0            0     19661.83    2581.5374    4236.7528    2896.5538    111.45022    308.99279    298.10914    47.016046    20.008304    20.901023           90           90           90 
  289000    231.71365   -11066.521   -10022.882   -11066.521            0    3384.1283    46.522789    20.141978    20.911176            0            0            0    19595.048    3613.8002    2586.1122    3952.4725    550.49783    237.36061   -57.690364    46.522789    20.141978    20.911176           90           90           90 
  289500    234.47688   -11140.591   -10084.506   -11140.591            0     3590.957    46.657596    20.002608    20.817323            0            0            0    19428.259    3604.2073    3955.7872    3212.8765    120.64704    275.18577    152.02386    46.657596    20.002608    20.817323           90           90           90 
  290000     233.3858   -11121.067   -10069.897   -11121.067            0    3221.0101    46.492846    20.100353    20.956572            0            0            0     19584.39     4701.288    1993.8809    2967.8613   -529.71517    1111.8973    374.93694    46.492846    20.100353    20.956572           90           90           90 
  290500    232.54273   -11113.721   -10066.348   -11113.721            0    3574.9351    46.676335    20.040047    20.823399            0            0            0    19478.123    3333.4099     3961.413    3429.9825   -671.92559    102.87145     346.9836    46.676335    20.040047    20.823399           90           90           90 
  291000    232.46537   -11113.164   -10066.139   -11113.164            0    3336.8766    46.921938    20.048549    20.746687            0            0            0    19516.756    2971.8916    3256.1514     3782.587    128.63167    55.689107    1042.6335    46.921938    20.048549    20.746687           90           90           90 
  291500    232.08639   -11093.576   -10048.258   -11093.576            0    3505.2729    46.855936      19.9446    20.859572            0            0            0    19493.747    3357.7397    4247.8484    2910.2306   -221.10167   -194.94681    794.17897    46.855936      19.9446    20.859572           90           90           90 
  292000    229.64919   -11149.918   -10115.577   -11149.918            0    2616.0454    47.041952    19.956544     20.94651            0            0            0    19664.474    2098.9843    3342.2339    2406.9178    286.79527   -13.122659   -269.10399    47.041952    19.956544     20.94651           90           90           90 
  292500    236.48117   -11142.481   -10077.369   -11142.481            0    2789.0007    46.645016     20.12214    20.802359            0            0            0    19525.043    1849.5304    3728.9339     2788.538   -5.2185828    974.30374    566.25044    46.645016     20.12214    20.802359           90           90           90 
  293000    227.14086   -11102.596   -10079.553   -11102.596            0    4936.4368    46.492688    20.033014    20.773628            0            0            0    19348.322    5665.1269    4366.8563    4777.3272   -464.17538   -730.84328    487.04048    46.492688    20.033014    20.773628           90           90           90 
  293500    223.25273   -11085.974   -10080.443   -11085.974            0    3219.6308    46.806828    20.086578    20.869839            0            0            0    19621.593    3826.2212    1926.6847    3905.9865    342.15192    1092.5333    631.55325    46.806828    20.086578    20.869839           90           90           90 
  294000    232.05086   -11090.744   -10045.586   -11090.744            0    4169.1992    47.123241    19.941311    20.800522            0            0            0    19546.235    4255.8357    4023.8594    4227.9025   -237.60608    44.420395    658.01184    47.123241    19.941311    20.800522           90           90           90 
  294500    235.32884   -11080.538   -10020.616   -11080.538            0    3271.0627     46.67052    20.025148    20.899064            0            0            0    19531.932    3854.6747    3120.8551    2837.6581    433.26807   -393.91607   -566.82642     46.67052    20.025148    20.899064           90           90           90 
  295000    229.71141   -11074.768   -10040.147   -11074.768            0    2675.2788    46.642497    20.036888    20.889924            0            0            0    19523.106    2874.1277     3186.081    1965.6277    57.830842   -40.833894    806.90087    46.642497    20.036888    20.889924           90           90           90 
  295500     224.8988   -11082.468   -10069.523   -11082.468            0    2745.8777    46.686595    20.187687    20.781773            0            0            0    19586.704    3359.9532    2142.6926    2734.9871    -177.7882   -12.490222    61.955918    46.686595    20.187687    20.781773           90           90           90 
  296000    236.21693    -11104.22   -10040.298    -11104.22            0     3313.518    47.034912     19.95304    20.862551            0            0            0    19579.285    2256.6568    4236.0328    3447.8645    288.16937   -736.34442    148.03818    47.034912     19.95304    20.862551           90           90           90 
  296500     233.6738   -11125.143   -10072.675   -11125.143            0     4652.004    46.759029    19.956868    20.848367            0            0            0    19454.941    5475.2604    4143.3914    4337.3603   -782.86323    643.19162   -502.33351    46.759029    19.956868    20.848367           90           90           90 
  297000    233.73561    -11147.85   -10095.104    -11147.85            0    3300.8117    46.803211    20.101371    20.765146            0            0            0     19536.03    3689.9989    2384.1608    3828.2754   -146.49378   -191.66129    -201.1078    46.803211    20.101371    20.765146           90           90           90 
  297500    239.10401   -11138.288   -10061.363   -11138.288            0    1530.3564    46.667187    20.126193    20.973709            0            0            0    19699.196    1417.7455    1653.0988    1520.2247    -343.3078   -781.56925   -523.51318    46.667187    20.126193    20.973709           90           90           90 
  298000    225.25306   -11168.281    -10153.74   -11168.281            0    2338.0016    46.708138    20.103995    20.896399            0            0            0    19622.141    3058.6071    1595.3299    2360.0679    239.51956   -899.72936   -791.23787    46.708138    20.103995    20.896399           90           90           90 
  298500    234.19042   -11130.823   -10076.029   -11130.823            0    3394.8675    47.008369    20.063771    20.660556            0            0            0    19486.316     2870.478    3645.8941    3668.2304    64.619782   -159.87091   -167.77554    47.008369    20.063771    20.660556           90           90           90 
  299000    227.73066   -11106.135   -10080.435   -11106.135            0    3401.7321      46.7378    20.007867    20.977029            0            0            0    19616.116    3348.5438    3959.1035    2897.5491    376.58373   -263.10736   -45.976848      46.7378    20.007867    20.977029           90           90           90 
  299500    226.07062   -11161.246   -10143.023   -11161.246            0    4119.9255    46.774585     19.97244    20.877638            0            0            0    19503.944    4195.9564    4231.8217    3931.9984    97.090273   -695.52119    1100.9614    46.774585     19.97244    20.877638           90           90           90 
  300000    233.00282    -11067.33   -10017.884    -11067.33            0    2123.8209    47.002376    20.089233    20.815203            0            0            0    19654.582    1077.4532    2818.5061    2475.5034   -231.94563    55.924338   -55.807106    47.002376    20.089233    20.815203           90           90           90 
  300500       232.99   -11148.087   -10098.699   -11148.087            0    2167.4383    47.050009    19.997537    20.889275            0            0            0    19654.391    2290.7796    2828.4521    1383.0832   -308.57874     127.5044    31.720657    47.050009    19.997537    20.889275           90           90           90 
  301000    225.53595   -11085.348   -10069.533   -11085.348            0    3541.3555    46.615818    20.006299    20.958046            0            0            0    19545.683    3934.0109    4177.6794    2512.3763   -287.88916    621.27415    725.20603    46.615818    20.006299    20.958046           90           90           90 
  301500    219.45065   -11099.182   -10110.776   -11099.182            0    3125.1985    46.953728    20.123111    20.598316            0            0            0    19462.424    2762.6067     3653.714    2959.2749   -197.58223     762.0467    898.72191    46.953728    20.123111    20.598316           90           90           90 
  302000    229.89657   -11126.917   -10091.462   -11126.917            0    3282.7215    46.819719    20.025755    20.845946            0            0            0    19545.164    3821.6658    3280.4324    2746.0663   -579.00418    5.3165638    251.74105    46.819719    20.025755    20.845946           90           90           90 
  302500    221.60315   -11115.386   -10117.284   -11115.386            0    2707.7827     46.73393    20.013548    20.953061            0            0            0    19597.645    2329.3275    3205.4354    2588.5853   -123.89695    203.43687   -237.23266     46.73393    20.013548    20.953061           90           90           90 
  303000    223.28452    -11078.89   -10073.216    -11078.89            0    2516.6265    46.855625    20.134805    20.750338            0            0            0    19576.469    2473.4441    1384.1213     3692.314    74.217106   -384.62839   -82.553882    46.855625    20.134805    20.750338           90           90           90 
  303500    226.23659   -11042.086   -10023.115   -11042.086            0    2888.0336    46.966541     20.00531     20.81314            0            0            0    19555.615     2871.721    2934.2694    2858.1105     -267.705   -378.44132    10.042352    46.966541     20.00531     20.81314           90           90           90 
  304000     230.3558   -11127.709   -10090.185   -11127.709            0    2456.3736    46.883081    19.974555      20.9839            0            0            0    19650.765    3169.2564    1740.9856    2458.8788   -192.32778    -573.2831   -172.28255    46.883081    19.974555      20.9839           90           90           90 
  304500    232.30241   -11143.316   -10097.025   -11143.316            0    2479.4524    46.945967    20.139181    20.721801            0            0            0    19591.496    2987.1311    1256.0095    3195.2167   -93.802775     638.2869    432.32959    46.945967    20.139181    20.721801           90           90           90 
  305000    234.39217   -11076.421   -10020.718   -11076.421            0    3634.0833     46.73682    20.136771    20.801986            0            0            0    19577.344    4162.1705    2836.6962    3903.3831   -47.878538   -1165.3062   -144.61184     46.73682    20.136771    20.801986           90           90           90 
  305500    231.64501   -11101.302   -10057.971   -11101.302            0    2766.3809    46.488806    20.070029    20.999975            0            0            0    19593.642    3988.6818    2573.2866    1737.1744   -5.7638891   -703.05361    211.79492    46.488806    20.070029    20.999975           90           90           90 
  306000    228.57082   -11129.503   -10100.019   -11129.503            0    2923.7487    46.918866    20.055613    20.787417            0            0            0    19560.681    2690.4473    2995.6166    3085.1822   -124.75382   -268.88285   -352.14682    46.918866    20.055613    20.787417           90           90           90 
  306500    225.33892   -11140.738   -10125.811   -11140.738            0    2945.2023    46.630164     20.10044    20.877082            0            0            0    19567.814    2804.8713    2959.1863    3071.5494    210.88443   -991.09811    730.70753    46.630164     20.10044    20.877082           90           90           90 
  307000     221.3551   -11051.587   -10054.603   -11051.587            0    3136.9561    46.989728    20.042557    20.755156            0            0            0    19547.087      3918.14    2149.8695    3342.8589   -212.16565    289.64855   -345.01932    46.989728    20.042557    20.755156           90           90           90 
  307500    227.33982   -11124.196   -10100.256   -11124.196            0    2464.7559    46.667621    20.047856    20.911195            0            0            0    19564.216    2930.6385    2563.5959    1900.0334   -301.81499   -871.25972    455.94487    46.667621    20.047856    20.911195           90           90           90 
  308000     224.2004   -11097.337   -10087.537   -11097.337            0    2854.6931    46.690691    20.013974    21.006102            0            0            0    19629.494    2148.9549    3944.7301    2470.3944    169.38882   -449.30831    518.11287    46.690691    20.013974    21.006102           90           90           90 
  308500    241.01317   -11122.699   -10037.175   -11122.699            0    3765.1638     46.81177    20.101606    20.726589            0            0            0     19503.55    3349.3613    3765.2768    4180.8533    197.40483   -33.476439     440.0786     46.81177    20.101606    20.726589           90           90           90 
  309000    229.68939   -11114.723   -10080.201   -11114.723            0    2659.1573    46.828464    20.101415    20.835913            0            0            0    19613.229    3313.2456    1784.1153    2880.1109    158.14247    608.10853   -563.15991    46.828464    20.101415    20.835913           90           90           90 
  309500    235.22929   -11102.067   -10042.593   -11102.067            0    3316.7758    46.644273    20.081356    20.980238            0            0            0    19651.774    4063.3062    2994.5767    2892.4444    443.02034    338.60614    27.798162    46.644273    20.081356    20.980238           90           90           90 
  310000    233.26304   -11085.363   -10034.746   -11085.363            0    4211.5999    46.862497    20.085891    20.666783            0            0            0    19453.126    3554.5111    4658.4265     4421.862   -571.48574   -1191.8574    30.135807    46.862497    20.085891    20.666783           90           90           90 
  310500    236.37432   -11054.638   -9990.0076   -11054.638            0    2008.1898    46.960909    20.058668    20.831476            0            0            0    19622.693    1930.9585    1653.7371    2439.8737   -207.28041   -409.48967    503.48784    46.960909    20.058668    20.831476           90           90           90 
  311000    235.00543   -11121.712   -10063.247   -11121.712            0    3394.5472    46.780831    20.009255     21.00234            0            0            0    19659.231    2779.7347    4115.5398    3288.3671   -271.85396    830.94087   -5.6388537    46.780831    20.009255     21.00234           90           90           90 
  311500    230.52611   -11112.893   -10074.603   -11112.893            0    3500.6046    46.923239    20.014913    20.781479            0            0            0    19517.229    2899.9837     3373.187    4228.6431    479.04563   -511.70106   -516.37094    46.923239    20.014913    20.781479           90           90           90 
  312000    228.19328   -11117.078   -10089.295   -11117.078            0    2767.1733    46.640365    20.082872    20.895979            0            0            0    19572.688    3093.4219    3150.8395    2057.2585    204.04956    732.40157   -496.91912    46.640365    20.082872    20.895979           90           90           90 
  312500    229.70889   -11099.487   -10064.877   -11099.487            0    3357.6419    46.894712    20.046778    20.827115            0            0            0    19579.317    2889.3069    3640.7611    3542.8577   -38.735948   -464.26195    764.21533    46.894712    20.046778    20.827115           90           90           90 
  313000    222.40566    -11092.67   -10090.954    -11092.67            0    3594.1239    46.663787    20.076801    20.811879            0            0            0    19497.808    3807.2091    3253.3581    3721.8047    145.52301    206.49804   -337.27232    46.663787    20.076801    20.811879           90           90           90 
  313500    231.62886   -11149.951   -10106.694   -11149.951            0    2325.7663    46.972648    19.847063    20.994091            0            0            0    19572.142    1673.2462    3890.6919    1413.3609   -29.494611    -562.8054    234.45562    46.972648    19.847063    20.994091           90           90           90 
  314000    231.79773   -11069.928    -10025.91   -11069.928            0    3585.5079    46.844448    20.070009    20.789312            0            0            0    19545.456    2862.9105    4216.1741    3677.4393   -221.85959    919.85764    319.18882    46.844448    20.070009    20.789312           90           90           90 
  314500    229.77335   -11070.518   -10035.618   -11070.518            0    3409.7082    46.866214    20.022807    20.851827            0            0            0    19567.212    2859.1084    3700.2168    3669.7994   -270.55578    848.66527    398.60446    46.866214    20.022807    20.851827           90           90           90 
  315000    234.32238   -11133.416   -10078.027   -11133.416            0    2454.2783    46.915955    19.955571    21.014291            0            0            0    19674.307    2002.5547    3136.7638    2223.5165   -236.91108      -572.33   -661.44679    46.915955    19.955571    21.014291           90           90           90 
  315500    226.10058   -11101.307   -10082.949   -11101.307            0     2665.222    47.080757    19.978341    20.816474            0            0            0     19579.88    2895.4418    2026.2454    3073.9787   -174.74376    391.35022   -150.94406    47.080757    19.978341    20.816474           90           90           90 
  316000     233.0824   -11093.157   -10043.353   -11093.157            0    2646.4566    46.877511     20.11943    20.818133            0            0            0    19634.597    2294.7698    2336.2593    3308.3407   -191.66485   -155.44403   -48.414698    46.877511     20.11943    20.818133           90           90           90 
  316500    234.09298   -11107.792   -10053.436   -11107.792            0    3191.2955    46.729107    20.004517    20.861004            0            0            0    19500.725    3390.3534    3265.1595    2918.3737     -363.957    328.45017   -800.56754    46.729107    20.004517    20.861004           90           90           90 
  317000    228.54214   -11168.111   -10138.756   -11168.111            0    1970.0063    46.721005    20.148404    20.831342            0            0            0    19609.661    1413.2059    1563.7994    2933.0137    66.645199    -133.4074   -414.89389    46.721005    20.148404    20.831342           90           90           90 
  317500    225.12643   -11157.225   -10143.255   -11157.225            0    2897.8335    46.934029    20.036078    20.769531            0            0            0    19531.124     2999.044    3192.1122    2502.3443    108.11687   -517.36432    176.44978    46.934029    20.036078    20.769531           90           90           90 
  318000    231.38455   -11109.193   -10067.036   -11109.193            0    2824.8316    46.670896    20.028811    20.932385            0            0            0     19566.81    2254.8358    3262.8917    2956.7673   -283.58849    694.04573   -389.36442    46.670896    20.028811    20.932385           90           90           90 
  318500    228.38747   -11087.223   -10058.565   -11087.223            0    3035.8024    46.719949    20.048156    20.928048            0            0            0    19602.232    3103.1636    3305.7368    2698.5068   -47.950168    85.812061    118.42474    46.719949    20.048156    20.928048           90           90           90 
  319000    233.69682   -11135.124   -10082.553   -11135.124            0    2989.1302     47.10742    20.051437    20.652038            0            0            0    19507.326     2995.564    2558.2978    3413.5288    135.19329      -939.31     1082.045     47.10742    20.051437    20.652038           90           90           90 
  319500    228.38925   -11099.309   -10070.643   -11099.309            0     3221.725    46.742652    20.019089    20.961333            0            0            0    19614.469    3545.3256    2744.9494       3374.9    673.94429    557.36052   -360.10956    46.742652    20.019089    20.961333           90           90           90 
  320000    234.28369   -11109.727   -10054.512   -11109.727            0    3187.4683    46.767603    20.025786     20.85994            0            0            0    19536.543    2968.7181    3731.7137    2861.9732   -161.47714   -611.68723   -252.18347    46.767603    20.025786     20.85994           90           90           90 
  320500     232.4315   -11120.102    -10073.23   -11120.102            0    3316.0277    46.956055    20.093665    20.774871            0            0            0    19601.491    2958.2001    3380.3316    3609.5514   -676.31975    484.67092   -261.22228    46.956055    20.093665    20.774871           90           90           90 
  321000    224.24567   -11115.493    -10105.49   -11115.493            0    3474.1825    46.812211    20.094365     20.87716            0            0            0    19638.343    2795.5221    3587.2208    4039.8046   -122.90557    16.988366   -478.75411    46.812211    20.094365     20.87716           90           90           90 
  321500    225.57408   -11108.441   -10092.455   -11108.441            0    4259.6712    46.680686    20.041198    20.814682            0            0            0    19472.903     4628.448    3928.7321    4221.8335   -261.48909    188.44028   -218.00019    46.680686    20.041198    20.814682           90           90           90 
  322000     234.6368   -11137.319   -10080.514   -11137.319            0    3408.4995    46.815001    20.064826    20.915361            0            0            0    19646.528    3620.2245    3163.0595    3442.2145   -172.98438   -383.65325    315.71436    46.815001    20.064826    20.915361           90           90           90 
  322500    233.29321   -11124.969   -10074.216   -11124.969            0    3553.8848    46.584575    19.970267    20.991031            0            0            0     19528.09    3777.2832    3773.5349    3110.8362    285.52901    476.62815   -1169.9132    46.584575    19.970267    20.991031           90           90           90 
  323000    234.92294   -11130.159   -10072.065   -11130.159            0     2853.592    47.064133    20.129143    20.706316            0            0            0     19616.35    1621.4471    3040.0393    3899.2897   -301.46146    654.46795    162.19214    47.064133    20.129143    20.706316           90           90           90 
  323500    235.65699   -11121.103   -10059.703   -11121.103            0    2973.7591    46.905171    20.028797    20.870882            0            0            0    19607.237    2720.3161    3176.5755    3024.3856   -433.57998    632.27344    538.84206    46.905171    20.028797    20.870882           90           90           90 
  324000    230.81922   -11138.099   -10098.488   -11138.099            0    3559.4456    46.808665    19.956284    20.846961            0            0            0     19473.71    2340.0276    4957.6619    3380.6474   -338.54495   -250.63604    91.966268    46.808665    19.956284    20.846961           90           90           90 
  324500    229.03008   -11145.985   -10114.433   -11145.985            0    2837.2036    46.926837    19.928698    20.981532            0            0            0    19621.735    2783.8929    3546.7063    2181.0115   -523.13094   -72.118073   -491.85605    46.926837    19.928698    20.981532           90           90           90 
  325000    231.75038   -11099.958   -10056.154   -11099.958            0     2801.043    46.819626    20.147223     20.79581            0            0            0    19616.385    2409.4059     2945.423       3048.3   -280.59926   -59.830139    490.23182    46.819626    20.147223     20.79581           90           90           90 
  325500    226.80167   -11135.214   -10113.698   -11135.214            0    3468.7828    46.701141    20.005657    20.862756            0            0            0    19491.802    4614.6761    2608.5151    3183.1572   -774.63727   -966.42097     758.6452    46.701141    20.005657    20.862756           90           90           90 
  326000     234.7799   -11143.615   -10086.166   -11143.615            0    3668.1956    46.367209    20.133066    20.899213            0            0            0     19509.71     4237.088    3073.3062    3694.1926   -53.991173   -179.20403   -168.98232    46.367209    20.133066    20.899213           90           90           90 
  326500    229.29831   -11101.592   -10068.831   -11101.592            0    2425.8907    46.958949    20.069946    20.740752            0            0            0    19547.403    3525.6224    1256.3444    2495.7051   -148.20028   -480.83204    140.59387    46.958949    20.069946    20.740752           90           90           90 
  327000    234.57004   -11101.683   -10045.178   -11101.683            0    2617.8312    46.694942    20.079279    20.966184            0            0            0    19657.911    3039.6624    2294.6203    2519.2109   -127.05109    361.60892   -141.18784    46.694942    20.079279    20.966184           90           90           90 
  327500    226.17253   -11127.006   -10108.324   -11127.006            0    3938.4945    46.969734    19.910312    20.865557            0            0            0    19513.095    3226.4318    4793.5773    3795.4745    94.333135    5.8131055   -242.47939    46.969734    19.910312    20.865557           90           90           90 
  328000    227.88999   -11088.333   -10061.916   -11088.333            0    2380.4466    46.959437     20.00453    20.791645            0            0            0    19531.702    3318.3889    1559.4097    2263.5412   -422.38581    115.45351   -73.034039    46.959437     20.00453    20.791645           90           90           90 
  328500    234.89433   -11157.458   -10099.493   -11157.458            0    4169.0222    46.537476    19.965168     20.96896            0            0            0    19482.859    3613.1679    5435.3667    3458.5321   -179.02249    480.42327    89.737669    46.537476    19.965168     20.96896           90           90           90 
  329000    226.46906   -11094.116   -10074.099   -11094.116            0    3230.3106    46.793273    20.119717    20.799214            0            0            0    19581.782    3295.2407    2900.9046    3494.7864   -57.553857    533.30627   -820.55326    46.793273    20.119717    20.799214           90           90           90 
  329500    228.84922   -11144.756   -10114.018   -11144.756            0     3104.373    46.823322    20.195149     20.68759            0            0            0    19562.267    3615.2668     2727.454    2970.3981    312.36925    632.58723    870.90582    46.823322    20.195149     20.68759           90           90           90 
  330000     239.4132   -11091.661   -10013.343   -11091.661            0    3035.0065    46.875354    19.974538    20.942851            0            0            0    19609.075    2351.1774    3713.8861    3039.9561    373.96596    879.80079    397.63367    46.875354    19.974538    20.942851           90           90           90 
  330500    226.93664   -11115.489   -10093.366   -11115.489            0    2723.1166    46.884848    19.996326    20.818022            0            0            0    19517.409    1417.3656     4137.379    2614.6052    35.866672   -857.53828   -527.20171    46.884848    19.996326    20.818022           90           90           90 
  331000    227.37262   -11147.126   -10123.039   -11147.126            0    3052.3435    47.038442    19.917483    20.793783            0            0            0    19481.433    2505.0034    3905.2797    2746.7474    74.354827    52.356882    288.80391    47.038442    19.917483    20.793783           90           90           90 
  331500    231.54726   -11125.675   -10082.785   -11125.675            0    3086.1425    46.949714    19.905766    20.946927            0            0            0     19576.37    2540.8311    4575.9998    2141.5968    35.807574   -196.15809    368.29851    46.949714    19.905766    20.946927           90           90           90 
  332000    223.93687   -11100.491   -10091.879   -11100.491            0    2148.4653    46.923206    20.084767    20.880413            0            0            0    19678.571    1587.0213    2809.1935    2049.1812    237.39764   -213.06763    234.02455    46.923206    20.084767    20.880413           90           90           90 
  332500    232.42347    -11109.46   -10062.624    -11109.46            0    3854.9358     46.77846    20.118402    20.778321            0            0            0    19554.641    5063.3774    2894.5838    3606.8462    215.63817   -138.44849    156.56076     46.77846    20.118402    20.778321           90           90           90 
  333000     240.6865   -11126.383    -10042.33   -11126.383            0    2782.1875    46.327133    20.110531    21.094016            0            0            0     19652.52    3093.1686    2931.3792    2322.0146    400.83494   -534.88058    987.84393    46.327133    20.110531    21.094016           90           90           90 
  333500    229.95093   -11068.358   -10032.658   -11068.358            0    3246.2556    46.885144    20.132976    20.820056            0            0            0     19652.83    3199.6473     3290.503    3248.6167    172.04763    436.93304    418.78461    46.885144    20.132976    20.820056           90           90           90 
  334000    236.08522   -11100.992   -10037.663   -11100.992            0    3321.7452    46.972899    19.948304     20.71849            0            0            0     19413.84    3002.0972    3703.5974     3259.541    -3.597992    148.64715    368.11499    46.972899    19.948304     20.71849           90           90           90 
  334500    233.71511   -11136.359   -10083.705   -11136.359            0    4046.8599    46.701734    20.032098    20.878129            0            0            0    19532.193    3891.5225    5441.7852    2807.2722   -34.639789   -397.61375    105.00988    46.701734    20.032098    20.878129           90           90           90 
  335000    224.58909   -11150.855   -10139.305   -11150.855            0    3085.0792    46.955825    19.997713    20.900119            0            0            0    19625.402     3375.758     2824.219    3055.2606   -57.292835    1482.5451   -453.17289    46.955825    19.997713    20.900119           90           90           90 
  335500    244.94772    -11099.72   -9996.4744    -11099.72            0    2387.5493    47.023166    20.137811    20.758446            0            0            0    19657.079    2220.9208    2759.0269    2182.7003   -413.09831    435.34806    304.05178    47.023166    20.137811    20.758446           90           90           90 
  336000    227.25298   -11104.569    -10081.02   -11104.569            0    2966.5895    46.694844    20.065695     21.03255            0            0            0    19706.752    3319.4985    3299.0895    2281.1803    151.40169    467.56557     654.3431    46.694844    20.065695     21.03255           90           90           90 
  336500    228.10783   -11066.229   -10038.831   -11066.229            0     2817.783    46.795461     20.12676    20.821597            0            0            0    19610.634    2725.7959    3465.1377    2262.4155    221.86509    1171.5568    209.18863    46.795461     20.12676    20.821597           90           90           90 
  337000    236.08466   -11116.398   -10053.072   -11116.398            0    3319.0971    46.685003    20.070898    20.771435            0            0            0    19463.041    4438.1692    2182.7275    3336.3945   -169.90879   -313.36295    -225.8399    46.685003    20.070898    20.771435           90           90           90 
  337500    237.79139   -11105.048   -10034.035   -11105.048            0    2179.1528    46.856777    20.117542    20.878806            0            0            0    19681.264    2344.9096    2226.3232    1966.2257    150.70393   -579.72901    393.60584    46.856777    20.117542    20.878806           90           90           90 
  338000    223.78331   -11144.613   -10136.692   -11144.613            0    3093.9899    46.476434    20.115841    21.038816            0            0            0    19669.453    4112.5407    3128.6425    2040.7865    63.481783    209.03569   -893.00916    46.476434    20.115841    21.038816           90           90           90 
  338500    228.11842    -11118.26   -10090.814    -11118.26            0    2877.0935    46.935574    20.003227    20.828797            0            0            0    19555.385    1864.4288    3060.8212    3706.0304   -166.34326   -249.84325    118.07549    46.935574    20.003227    20.828797           90           90           90 
  339000     230.9229   -11068.402   -10028.324   -11068.402            0    3750.8425    46.946223    20.023532    20.734126            0            0            0    19490.684    3415.0112    4108.0986    3729.4177    238.14423    126.74068     836.2168    46.946223    20.023532    20.734126           90           90           90 
  339500    227.61882   -11106.042   -10080.846   -11106.042            0    2513.2853    46.766579    20.022481    20.974318            0            0            0    19639.994    3311.1346    2129.6316    2099.0898    68.664611    116.82637    1203.0265    46.766579    20.022481    20.974318           90           90           90 
  340000    227.38904   -11099.504   -10075.343   -11099.504            0    2886.5489    46.686025    19.959685    20.964789            0            0            0    19535.795    2517.6754     3248.003    2893.9683   -254.63915   -65.681072   -182.25162    46.686025    19.959685    20.964789           90           90           90 
  340500    233.45101   -11085.761   -10034.297   -11085.761            0     2817.619    47.043268    20.164277    20.674676            0            0            0    19611.863    3297.0432     1830.829    3324.9849   -277.59574    484.68653   -412.64188    47.043268    20.164277    20.674676           90           90           90 
  341000    227.00365   -11112.037   -10089.612   -11112.037            0    3016.0698    46.770761    19.980335    20.898001            0            0            0    19529.088    2950.9984    3847.7671    2249.4438   -52.926074    1058.4079   -47.934889    46.770761    19.980335    20.898001           90           90           90 
  341500     231.3257   -11137.137   -10095.245   -11137.137            0    2587.5249    46.726134     20.13131    20.877526            0            0            0    19638.617    2636.2772    2887.7904    2238.5071      -134.83   -44.998445    364.79418    46.726134     20.13131    20.877526           90           90           90 
  342000    223.90855   -11098.948   -10090.463   -11098.948            0    3040.2824    46.893523    20.029693    20.851782            0            0            0    19585.305    3889.7972    3152.5031    2078.5468    29.221556   -327.09879    -686.6452    46.893523    20.029693    20.851782           90           90           90 
  342500    224.54966   -11110.473     -10099.1   -11110.473            0    3048.8682    46.564943    20.131353    20.869526            0            0            0    19563.413    3776.5554    2980.5946    2389.4546   -316.28414   -470.06672    378.21799    46.564943    20.131353    20.869526           90           90           90 
  343000    229.57198   -11127.838   -10093.845   -11127.838            0    3395.6432    46.892374    20.007969    20.863446            0            0            0    19574.526    3493.6974    4336.9027    2356.3293   -117.23382   -91.801003    278.82717    46.892374    20.007969    20.863446           90           90           90 
  343500    225.47397   -11090.553   -10075.018   -11090.553            0    3095.9545    46.783785    20.037769    20.841348            0            0            0     19537.57    1701.0641    3728.6919    3858.1074   -206.55714    403.53909   -630.66837    46.783785    20.037769    20.841348           90           90           90 
  344000    228.34868   -11129.195   -10100.711   -11129.195            0    1696.2738    47.106896    19.957922    20.890869            0            0            0    19640.671    677.73107    2424.3692     1986.721    1.7879241    233.85991   -236.76839    47.106896    19.957922    20.890869           90           90           90 
  344500    229.07243   -11130.693    -10098.95   -11130.693            0    3053.3834    46.806342    19.933723    20.878113            0            0            0    19479.794    3848.2645    2829.9349    2481.9508   -214.36172   -662.91247   -93.726216    46.806342    19.933723    20.878113           90           90           90 
  345000    235.55984    -11108.76   -10047.798    -11108.76            0     3340.162     46.77727    20.040941    20.796003            0            0            0    19495.432    4079.3107    2764.5516    3176.6238    14.572229    303.47302    264.58825     46.77727    20.040941    20.796003           90           90           90 
  345500    232.35752   -11151.971   -10105.431   -11151.971            0    2683.3322    46.757195    20.143091     20.81516            0            0            0    19604.435    2042.6388    3225.3643    2781.9936    425.76716    194.05433    309.48522    46.757195    20.143091     20.81516           90           90           90 
  346000    212.64769    -11082.97   -10125.204    -11082.97            0    2604.7074    46.686902    20.105043    21.054307            0            0            0     19762.46    2870.0317    2424.6012    2519.4893   -83.183501    -608.6137    -480.8926    46.686902    20.105043    21.054307           90           90           90 
  346500    224.97756   -11095.927   -10082.627   -11095.927            0    2420.1301    46.973752    20.031207    20.830398            0            0            0    19600.175    3464.1953    1409.0422    2387.1526    318.70512   -691.34408   -562.13581    46.973752    20.031207    20.830398           90           90           90 
  347000    231.60435    -11101.34   -10058.194    -11101.34            0    3647.9368    46.865234    20.029627    20.773386            0            0            0    19499.835    3660.2353    3009.1415    4274.4336   -141.30254   -160.38099    -125.3454    46.865234    20.029627    20.773386           90           90           90 
  347500    231.01085   -11089.993   -10049.519   -11089.993            0    4021.9145    46.673337    20.021489      20.9235            0            0            0    19552.377     3282.813    5478.6705      3304.26    63.147811     126.3069    1085.0478    46.673337    20.021489      20.9235           90           90           90 
  348000    218.13532   -11127.949   -10145.467   -11127.949            0    3084.2778    46.734929    20.096594    20.758751            0            0            0    19496.887    2919.4875    3408.2722    2925.0738    104.07074   -925.10907     598.2409    46.734929    20.096594    20.758751           90           90           90 
  348500    228.40125   -11158.945   -10130.225   -11158.945            0    2760.9636    46.725027    20.047407    20.853454            0            0            0    19533.756    2974.3267    2523.6449    2784.9193    -358.3405    276.99839    157.59393    46.725027    20.047407    20.853454           90           90           90 
  349000     229.5726   -11133.945   -10099.949   -11133.945            0    2653.6319    46.444106    20.050984      21.0361            0            0            0    19589.869    3507.8159    2480.0355    1973.0444    103.31352     465.4116    1058.4332    46.444106    20.050984      21.0361           90           90           90 
  349500    234.24611    -11090.62   -10035.575    -11090.62            0    2723.5084    47.068621    20.063518    20.721882            0            0            0    19568.961    1795.4699    3094.7189    3280.3364    229.36796    53.709168    270.69792    47.068621    20.063518    20.721882           90           90           90 
  350000    232.09485   -11133.705   -10088.349   -11133.705            0     2539.332    46.756015    20.045494    20.846979            0            0            0    19538.777    2777.9861    2602.2387    2237.7711    245.94829   -482.10746    192.64305    46.756015    20.045494    20.846979           90           90           90 
  350500    231.29372   -11083.153   -10041.405   -11083.153            0    3101.3005    46.566843    20.025814    21.021377            0            0            0    19603.252    3530.3446    3356.6678    2416.8892    147.54577   -626.83285     283.1942    46.566843    20.025814    21.021377           90           90           90 
  351000    230.22278   -11127.076   -10090.152   -11127.076            0    3401.3756    46.853084    20.064959    20.786947            0            0            0    19541.917    3380.2219    3804.2276    3019.6772    154.46197    1012.5476    1431.1668    46.853084    20.064959    20.786947           90           90           90 
  351500    226.83883   -11063.803    -10042.12   -11063.803            0    3001.7839    46.675843    20.180114    20.849176            0            0            0    19638.335    3539.3898    2518.9094    2947.0526   -92.586897   -16.990028    599.46717    46.675843    20.180114    20.849176           90           90           90 
  352000     227.1741   -11108.367   -10085.174   -11108.367            0    2689.7079    46.819041    20.031362    20.930434            0            0            0    19629.589    3109.0076    2416.2168    2543.8994    98.323803     138.2594   -221.26318    46.819041    20.031362    20.930434           90           90           90 
  352500    226.20693   -11109.541   -10090.704   -11109.541            0    2749.9172    46.962923    20.067164    20.826727            0            0            0    19627.372    3896.0348    2465.1618    1888.5551   -116.82674    939.76333    265.38876    46.962923    20.067164    20.826727           90           90           90 
  353000    222.13655   -11139.485   -10138.982   -11139.485            0    3022.2046    46.646376    20.041483    20.865136            0            0            0    19506.034    2956.7637     3017.267     3092.583   -657.04158   -271.05339   -423.04412    46.646376    20.041483    20.865136           90           90           90 
  353500    226.12206   -11121.735    -10103.28   -11121.735            0    2861.3525    46.500204    19.992468    21.022362            0            0            0     19543.52    2909.5244    3667.0788    2007.4544   -240.33721    205.75233    463.68922    46.500204    19.992468    21.022362           90           90           90 
  354000    235.34126   -11097.844   -10037.866   -11097.844            0     2951.924    46.849899    20.208529    20.668608            0            0            0    19568.367     2845.683    2018.3243    3991.7646   -320.04765    787.33592   -315.33262    46.849899    20.208529    20.668608           90           90           90 
  354500    236.16656   -11118.884   -10055.189   -11118.884            0    2014.5799    46.882361    20.067469    20.880635            0            0            0    19644.717      1274.34    2441.6453    2327.7544   -176.03365    954.61926    463.54275    46.882361    20.067469    20.880635           90           90           90 
  355000    235.28196    -11118.76   -10059.049    -11118.76            0    3034.9225    46.809657    19.909095    20.994653            0            0            0    19565.713    2735.6791    2828.7405     3540.348   -529.23265   -774.64228    178.34079    46.809657    19.909095    20.994653           90           90           90 
  355500    227.36291    -11142.32   -10118.276    -11142.32            0    2872.3962    46.944901    20.101957    20.633743            0            0            0    19471.741    1831.7193    3376.7389    3408.7304    110.82565    664.24307   -154.00067    46.944901    20.101957    20.633743           90           90           90 
  356000    227.15272   -11104.947   -10081.851   -11104.947            0    2860.4921    46.922541    20.037878    20.842919            0            0            0    19597.099    2193.2841    2964.9743    3423.2177    430.40443    327.35539   -478.70676    46.922541    20.037878    20.842919           90           90           90 
  356500    231.45324   -11061.794   -10019.328   -11061.794            0    2504.3465    46.571275    20.105683     20.94858            0            0            0    19615.146    3577.1352    1902.1567    2033.7475   -367.41037    524.34036   -49.913518    46.571275    20.105683     20.94858           90           90           90 
  357000    231.12157   -11119.219   -10078.247   -11119.219            0    3445.9753    46.798436    20.081815    20.791707            0            0            0    19539.995    3941.8399    2596.8407    3799.2455    91.976127   -83.520378     60.87072    46.798436    20.081815    20.791707           90           90           90 
  357500    232.63875   -11107.419   -10059.613   -11107.419            0    2152.5666    47.108313       20.076    20.817991            0            0            0    19688.542     2365.665    1235.8312    2856.2036    -336.2456   -588.28356    265.01805    47.108313       20.076    20.817991           90           90           90 
  358000    229.41759   -11146.823   -10113.525   -11146.823            0    1981.1137    46.979723    19.983174     21.01181            0            0            0    19725.971    1779.7353    2522.9935    1640.6123   -212.21049    754.85613    534.73494    46.979723    19.983174     21.01181           90           90           90 
  358500    232.79199   -11132.139   -10083.642   -11132.139            0    2782.9069    46.809361    20.045017    20.795206            0            0            0    19512.027    3423.1764    2220.7589    2704.7853   -424.84647     137.7935    399.85496    46.809361    20.045017    20.795206           90           90           90 
  359000    232.93148   -11116.318   -10067.194   -11116.318            0     3368.247    46.712307    20.070889    20.844192            0            0            0    19542.629    3423.7455    3922.9676    2758.0279   -59.253041   -688.25262     842.1094    46.712307    20.070889    20.844192           90           90           90 
  359500    230.54522   -11080.313   -10041.936   -11080.313            0    2961.2394    46.574776    20.010198    21.106976            0            0            0    19671.078     3344.602    2724.6279    2814.4881    262.71988   -72.436301   -68.084901    46.574776    20.010198    21.106976           90           90           90 
  360000     229.8913   -11126.894   -10091.463   -11126.894            0    3016.8097    46.792742    20.059081    20.792585            0            0            0    19516.323    2916.3728    3769.3037    2364.7527   -49.225092   -414.21165    643.36938    46.792742    20.059081    20.792585           90           90           90 
  360500    229.40518   -11123.589   -10090.347   -11123.589            0    2750.6768    46.793742    20.051867    20.838705            0            0            0    19552.997    2006.8116    2918.3967    3326.8221    433.67789    66.391923    462.89423    46.793742    20.051867    20.838705           90           90           90 
  361000    232.54858   -11094.886   -10047.486   -11094.886            0    3918.8532    46.630621    20.029705    20.900755            0            0            0    19521.254    5799.9458    2724.1675    3232.4463     144.4088   -1019.1298   -10.468537    46.630621    20.029705    20.900755           90           90           90 
  361500    228.40907   -11080.048   -10051.292   -11080.048            0    3615.3971    46.553107    20.187996    20.689294            0            0            0    19444.087    4151.8016    2772.0981    3922.2916   -446.55558   -428.82532    105.25665    46.553107    20.187996    20.689294           90           90           90 
  362000    230.65518   -11132.766   -10093.894   -11132.766            0    2945.9059    46.654347    20.061466    20.819976            0            0            0    19486.553    4241.7961    2496.7066     2099.215   -94.362539    106.63118    -538.6404    46.654347    20.061466    20.819976           90           90           90 
  362500    241.47089   -11110.042   -10022.456   -11110.042            0    2367.0316     46.68435    20.053957    20.953538            0            0            0    19616.826    1990.9647    2200.7853    2909.3447   -264.79894    533.00394    506.20315     46.68435    20.053957    20.953538           90           90           90 
  363000    232.14277   -11091.237   -10045.665   -11091.237            0    3325.8386    47.048588    19.885038    20.800723            0            0            0    19460.386    1964.2674     4557.978    3455.2703   -94.902061    1044.3614    43.635967    47.048588    19.885038    20.800723           90           90           90 
  363500    229.67347   -11093.056   -10058.606   -11093.056            0    1385.7251    46.920788    20.114819     20.89771            0            0            0    19723.325    1550.1698    1157.1911    1449.8144   -38.463567   -726.89328     78.84321    46.920788    20.114819     20.89771           90           90           90 
  364000    228.67446   -11085.665   -10055.714   -11085.665            0    3174.1395    46.802354     20.00286    20.876379            0            0            0    19544.068    3399.4066    3237.4256    2885.5863   -673.36419   -1114.7943     305.5417    46.802354     20.00286    20.876379           90           90           90 
  364500    230.46753   -11139.109   -10101.082   -11139.109            0     4039.986    46.582377    20.239325    20.635585            0            0            0    19455.145    4994.7539    3243.5629    3881.6413    20.979287    468.51016    302.25931    46.582377    20.239325    20.635585           90           90           90 
  365000     235.5523   -11127.705   -10066.777   -11127.705            0    2645.5857    46.749317    20.117406    20.875226            0            0            0    19632.629    2489.3556    3144.6203    2302.7813   -833.60034    333.21314   -1304.4257    46.749317    20.117406    20.875226           90           90           90 
  365500    236.20378   -11141.467   -10077.604   -11141.467            0    3276.6164    46.625632    20.057273    20.929329            0            0            0    19572.753    3736.3687    2917.4904    3175.9903   -293.47463   -826.13066    571.55486    46.625632    20.057273    20.929329           90           90           90 
  366000    231.46183   -11073.343   -10030.838   -11073.343            0    2234.1903    46.978099    20.073409    20.825456            0            0            0    19638.625    2113.0845     2435.496    2153.9905   -263.06744    66.791351    498.43252    46.978099    20.073409    20.825456           90           90           90 
  366500     224.3361   -11107.395   -10096.984   -11107.395            0    2838.9797    46.908754    20.008048    20.819096            0            0            0    19539.817    1425.6464    3783.8534    3307.4394   -223.31096    136.53167    109.71189    46.908754    20.008048    20.819096           90           90           90 
  367000    220.93894     -11110.2    -10115.09     -11110.2            0    2916.5115    47.282767    19.889356    20.861213            0            0            0    19618.381     2521.135    3288.0036    2940.3958   -43.325202   -154.32526   -92.125647    47.282767    19.889356    20.861213           90           90           90 
  367500    224.70776   -11088.986   -10076.901   -11088.986            0    3405.6828    46.760414    19.998138    20.854509            0            0            0    19501.493     3339.274    3165.0432    3712.7311    407.36872    220.94155   -134.55651    46.760414    19.998138    20.854509           90           90           90 
  368000    228.07654   -11076.948    -10049.69   -11076.948            0    3808.3796    46.761631    20.053802    20.832782            0            0            0     19535.91    4029.3602    2837.2808    4558.4978    214.77699    78.152361    380.92778    46.761631    20.053802    20.832782           90           90           90 
  368500    226.08354   -11099.794   -10081.513   -11099.794            0    3830.9894    46.539129    20.180796     20.71119            0            0            0    19451.881    4370.5205    3025.1928    4097.2547   -450.59539    13.261498    -556.7399    46.539129    20.180796     20.71119           90           90           90 
  369000    231.40138   -11103.427   -10061.195   -11103.427            0    2177.9146    46.659144    20.112936    20.923667            0            0            0    19635.866    3399.8668    1801.3552    1332.5218   -425.31312   -6.4674926   -186.24202    46.659144    20.112936    20.923667           90           90           90 
  369500    235.53411   -11111.455   -10050.609   -11111.455            0    3728.3499    46.603955      19.9299    21.013227            0            0            0    19517.341    3837.0718    3362.0706    3985.9071    276.08877    -935.5843     238.5222    46.603955      19.9299    21.013227           90           90           90 
  370000    233.68628   -11128.203   -10075.679   -11128.203            0    2947.5004    47.168775    20.064634    20.727309            0            0            0    19616.827    1714.3723    3486.3279    3641.8011   -52.714556    201.21196     437.9671    47.168775    20.064634    20.727309           90           90           90 
  370500    234.94416   -11139.823   -10081.633   -11139.823            0    2764.9983    46.878317    19.982027    20.884131            0            0            0    19562.662    2572.5505    3510.6909    2211.7535    368.61349    -71.53862     23.37958    46.878317    19.982027    20.884131           90           90           90 
  371000    224.51326   -11131.897   -10120.688   -11131.897            0    3789.3746    46.832479    19.969162     20.89029            0            0            0    19536.711    2846.8544     4678.458    3842.8114    439.08555    36.773439    202.27553    46.832479    19.969162     20.89029           90           90           90 
  371500    231.67016   -11141.434    -10097.99   -11141.434            0    2804.4262    46.761854    20.132032    20.891217            0            0            0    19667.224    2884.9511    3012.4223    2515.9051    8.1039496   -180.82064   -923.19871    46.761854    20.132032    20.891217           90           90           90 
  372000    229.51409   -11129.401   -10095.669   -11129.401            0    2568.9843    46.711156    20.138777    20.874163            0            0            0    19636.441    2072.5817    2810.9282     2823.443    241.63366    136.94453    164.00033    46.711156    20.138777    20.874163           90           90           90 
  372500    229.15661   -11116.292    -10084.17   -11116.292            0    4229.6513    46.572218    19.955277    20.882323            0            0            0    19407.227    3757.4579    5019.8063    3911.6898    321.44981   -329.48947   -549.63199    46.572218    19.955277    20.882323           90           90           90 
  373000    225.07785   -11158.871    -10145.12   -11158.871            0    2602.6137     46.99317    20.084745    20.759437            0            0            0    19593.709    1748.9634    2836.8336    3222.0441   -71.620405   -275.24109   -415.86064     46.99317    20.084745    20.759437           90           90           90 
  373500    237.00394   -11118.228   -10050.761   -11118.228            0    2812.0407    46.969911    19.974982    20.871029            0            0            0    19581.683    2775.0825    2650.8038     3010.236   -313.13786    191.20756   -204.75892    46.969911    19.974982    20.871029           90           90           90 
  374000     236.5082   -11106.059   -10040.826   -11106.059            0    3591.5297    46.779257    20.013115    20.901687            0            0            0    19568.131    3292.9906    4184.6089    3296.9895   -235.75381    367.92922    357.52024    46.779257    20.013115    20.901687           90           90           90 
  374500    238.52362   -11128.416   -10054.105   -11128.416            0    2622.4425    46.781173    19.983139    21.034045            0            0            0    19663.354    2699.0799    3185.0635    1983.1841    35.056106   -498.03716   -486.27576    46.781173    19.983139    21.034045           90           90           90 
  375000    236.63095   -11168.149   -10102.363   -11168.149            0     3729.545    46.853376    20.099344    20.732654            0            0            0    19524.399    3464.4985    3519.4791    4204.6574   -281.04073   -288.47967   -595.47541    46.853376    20.099344    20.732654           90           90           90 
  375500    233.54719   -11138.456   -10086.558   -11138.456            0    2458.1038    46.820341    20.034084    20.837996            0            0            0    19546.095    2651.9883    1836.0665    2886.2567   -5.6365022    237.24844   -460.14022    46.820341    20.034084    20.837996           90           90           90 
  376000     230.9945   -11090.761   -10050.361   -11090.761            0    3232.0288    46.803696    19.938498    21.079945            0            0            0    19671.708    2221.7917    4606.9079    2867.3867   -203.66769   -166.67411    174.65522    46.803696    19.938498    21.079945           90           90           90 
  376500    228.16064   -11078.583   -10050.947   -11078.583            0    3210.6397    46.951892    20.039427    20.746373            0            0            0    19520.033    3233.9984    3204.1567     3193.764   -502.07312   -442.49029   -170.70821    46.951892    20.039427    20.746373           90           90           90 
  377000    226.61248   -11152.983    -10132.32   -11152.983            0    2813.7783    46.896743    19.979496    20.802594            0            0            0    19491.475    2548.0782    2859.4138    3033.8429   -251.14054     814.6364    326.80195    46.896743    19.979496    20.802594           90           90           90 
  377500    240.56812   -11158.523   -10075.003   -11158.523            0    3021.1367    46.693084    20.056184    20.897531            0            0            0    19570.226    2338.0022    3884.5163    2840.8917    115.14275    272.34496   -337.11903    46.693084    20.056184    20.897531           90           90           90 
  378000    225.02683   -11079.162    -10065.64   -11079.162            0    3404.8565    46.797479    20.183004    20.779647            0            0            0    19626.661    3955.2694    2628.9717    3630.3285   -621.03276    251.52909    634.42206    46.797479    20.183004    20.779647           90           90           90 
  378500    233.35265   -11120.321     -10069.3   -11120.321            0     3120.909    46.602936    20.140082    20.836367            0            0            0    19556.743    3417.1593    2566.4758    3379.0919   -43.680874   -174.36283     60.62662    46.602936    20.140082    20.836367           90           90           90 
  379000    227.92492   -11128.771   -10102.196   -11128.771            0     2612.786    46.779399    19.963865    21.009191            0            0            0    19620.433    2018.3509    3237.1962    2582.8107    -216.2076    250.34292   -633.91255    46.779399    19.963865    21.009191           90           90           90 
  379500    219.80373   -11100.182   -10110.186   -11100.182            0    4009.0753     46.93561    20.014596    20.707279            0            0            0    19452.361    3388.1566    4847.1676    3791.9016    45.961893    367.64331    159.47941     46.93561    20.014596    20.707279           90           90           90 
  380000    216.65222    -11180.95   -10205.147    -11180.95            0    3280.7731    46.814386    19.972369    20.839753            0            0            0    19485.047     3886.173    2695.4538    3260.6926   -247.48381    695.45279    12.519484    46.814386    19.972369    20.839753           90           90           90 
  380500    237.56275     -11090.3   -10020.316     -11090.3            0    3757.9272    46.678483    19.998692    20.925389            0            0            0    19534.031    3515.4068    4883.9762    2874.3986    397.60763    602.34412   -171.18147    46.678483    19.998692    20.925389           90           90           90 
  381000    236.15442   -11115.804   -10052.164   -11115.804            0    3059.9228    46.771386    20.081401    20.798228            0            0            0    19534.423    3637.0574    2164.3478    3378.3632    702.19933   -303.03832   -11.858672    46.771386    20.081401    20.798228           90           90           90 
  381500    237.21444    -11100.28   -10031.866    -11100.28            0    2834.1719    46.827963    20.223811    20.745051            0            0            0     19646.39    3238.7711    2273.3372    2990.4073   -22.836988    1004.5236    384.34091    46.827963    20.223811    20.745051           90           90           90 
  382000    238.18106   -11156.384   -10083.616   -11156.384            0    3330.0307    46.840138    19.950932    20.897828            0            0            0    19529.113    3272.9935    3598.0114    3119.0871    163.03774   -118.54748   -122.83738    46.840138    19.950932    20.897828           90           90           90 
  382500    235.20149   -11129.625   -10070.276   -11129.625            0    2941.0791    46.784039     20.14636    20.843976            0            0            0    19646.033     4430.291    1738.5478    2654.3984    44.305676    620.76913   -484.48309    46.784039     20.14636    20.843976           90           90           90 
  383000    233.72148   -11104.818   -10052.136   -11104.818            0    2430.2856    46.835484    20.067011    20.763228            0            0            0    19514.282    3132.9386    1568.5679    2589.3502    137.73844    785.74256    254.20711    46.835484    20.067011    20.763228           90           90           90 
  383500    240.45752   -11150.802    -10067.78   -11150.802            0    2925.5527    46.889398    19.911262    20.952031            0            0            0    19561.384    2299.4592    3556.2986    2920.9004    64.268624   -678.77841   -122.88662    46.889398    19.911262    20.952031           90           90           90 
  384000    226.88255   -11147.065   -10125.185   -11147.065            0    3553.5172    47.018451    19.934277    20.768404            0            0            0    19465.785    2840.3468    3740.9848    4079.2201    206.83201    645.44632    -363.0304    47.018451    19.934277    20.768404           90           90           90 
  384500    231.84275   -11162.167   -10117.946   -11162.167            0    2658.4602    46.969836    19.989593    20.813391            0            0            0    19541.857    1093.1267     3905.489    2976.7649   -312.35808   -537.27089    784.69691    46.969836    19.989593    20.813391           90           90           90 
  385000    232.98756   -11113.897   -10064.521   -11113.897            0    3080.2746    46.891509    19.968513    20.950928            0            0            0    19617.479    2768.4237     3591.816    2880.5842   -122.98156    506.99465    658.83472    46.891509    19.968513    20.950928           90           90           90 
  385500    227.84408   -11110.018   -10083.808   -11110.018            0     3346.139    46.704064    20.084581    20.808906            0            0            0    19519.411    2819.5145      3501.64    3717.2626   -55.058125   -72.922129   -193.76047    46.704064    20.084581    20.808906           90           90           90 
  386000    228.43194   -11103.592   -10074.734   -11103.592            0    3355.3256    46.882567    20.107513    20.742777            0            0            0    19554.046    3593.6316    2119.7114    4352.6339   -252.41671   -597.70172   -168.98592    46.882567    20.107513    20.742777           90           90           90 
  386500    230.07264   -11120.313   -10084.065   -11120.313            0    1971.0146    46.577632    20.157262    21.028587            0            0            0    19743.267    2011.4889    1676.1265    2225.4285   -349.04724    100.88435   -856.90417    46.577632    20.157262    21.028587           90           90           90 
  387000    226.75529   -11101.357   -10080.051   -11101.357            0     3566.327    46.976272    19.951088    20.829718            0            0            0     19522.19    3872.2252    3940.0175    2886.7383    183.06068    278.17501   -811.36396    46.976272    19.951088    20.829718           90           90           90 
  387500     227.4608   -11133.768   -10109.283   -11133.768            0     2980.959    46.789052    20.073621    20.826146            0            0            0    19560.451    3371.9884    2619.7565     2951.132     244.7467    224.75045   -188.42879    46.789052    20.073621    20.826146           90           90           90 
  388000    226.95013   -11102.079   -10079.895   -11102.079            0     3424.566    47.067049    19.887028    20.861299            0            0            0    19526.672    1714.5749    4879.9566    3679.1665   -513.95219   -513.59656    404.53619    47.067049    19.887028    20.861299           90           90           90 
  388500    233.68099   -11174.212   -10121.712   -11174.212            0    2965.7989    47.019735      20.0528     20.72877            0            0            0    19544.688    2593.8271     3749.804    2553.7655   -208.61044   -19.009368    168.98123    47.019735      20.0528     20.72877           90           90           90 
  389000    226.52447   -11103.465   -10083.198   -11103.465            0    2925.5236    47.213552    19.963848    20.869285            0            0            0    19670.641    2306.9735    3926.1063     2543.491    283.62497    119.31221   -27.714855    47.213552    19.963848    20.869285           90           90           90 
  389500    226.11644   -11103.808   -10085.379   -11103.808            0    2989.9835    46.640214    20.142463     20.92438            0            0            0    19657.383    2425.5251    3781.1986    2763.2268    402.45742   -203.85824    205.22994    46.640214    20.142463     20.92438           90           90           90 
  390000    220.86752    -11081.73   -10086.941    -11081.73            0    3382.2981    46.940838    20.029204    20.778479            0            0            0    19535.669    3089.7373    2917.6604    4139.4966    47.562717   -218.43187    425.52116    46.940838    20.029204    20.778479           90           90           90 
  390500    233.92748   -11116.757   -10063.147   -11116.757            0    2049.2201    46.811278    20.022976    21.078342            0            0            0    19756.753    1800.0769    2508.5244    1839.0589   -202.55251   -873.55542    213.41629    46.811278    20.022976    21.078342           90           90           90 
  391000    231.60856   -11120.482   -10077.316   -11120.482            0    2884.4221     46.86734    20.038483    20.855517            0            0            0    19586.466    2709.1054    3216.3846    2727.7763    33.472517    -1546.406    647.80908     46.86734    20.038483    20.855517           90           90           90 
  391500    228.47221   -11073.008   -10043.969   -11073.008            0    4363.7355    46.524018     20.17274    20.738824            0            0            0    19463.737    4190.5862    4486.1483    4414.4719   -359.90185    449.55164    602.76695    46.524018     20.17274    20.738824           90           90           90 
  392000    221.82908   -11109.042   -10109.923   -11109.042            0    2501.8012      46.5933    20.007483    20.995913            0            0            0    19572.698    4273.4218    1690.3643    1541.6175    474.21578   -4.6723681   -330.09085      46.5933    20.007483    20.995913           90           90           90 
  392500    235.57957   -11121.422   -10060.371   -11121.422            0    2854.2444    46.943473    20.007356    20.839343            0            0            0    19572.618    1928.5127    3580.1183    3054.1021   -29.025953    1062.8523    192.70374    46.943473    20.007356    20.839343           90           90           90 
  393000     236.1806   -11088.152   -10024.394   -11088.152            0    2289.1232    47.084181     20.13281     20.77401            0            0            0    19692.451    814.12206    3025.0758    3028.1719   -456.60765    75.925909   -477.45904    47.084181     20.13281     20.77401           90           90           90 
  393500    226.71506   -11125.457   -10104.331   -11125.457            0    3429.7905    46.716626    20.035062     20.91112            0            0            0    19572.192    2669.3777     4064.159    3555.8347     175.0835   -260.81652    69.324783    46.716626    20.035062     20.91112           90           90           90 
  394000    220.41122   -11103.246   -10110.513   -11103.246            0    3746.4434    46.470074    20.060733    20.867006            0            0            0    19452.719    5254.0995    3198.1767    2787.0541    573.12206    -31.31772   -239.33757    46.470074    20.060733    20.867006           90           90           90 
  394500    227.55175   -11097.992   -10073.098   -11097.992            0    2407.9297    46.985092    20.172497    20.780072            0            0            0     19695.49    2304.6735    1883.7026    3035.4129   -171.91467   -5.1319521    319.95329    46.985092    20.172497    20.780072           90           90           90 
  395000    234.45779   -11119.775   -10063.776   -11119.775            0    3383.3913    46.775005    19.958035     20.88014            0            0            0    19492.388    3588.3154    3533.3426    3028.5158   -366.32437    804.60962    619.68977    46.775005    19.958035     20.88014           90           90           90 
  395500    222.19695   -11175.735   -10174.959   -11175.735            0    3159.6691    46.743231    19.977196     20.90971            0            0            0     19525.46    2745.6512    3571.5906    3161.7655    215.33283   -131.86991   -506.38451    46.743231    19.977196     20.90971           90           90           90 
  396000     225.9555   -11115.819   -10098.115   -11115.819            0    3851.5675    47.005565     19.99352    20.774904            0            0            0    19524.394    2733.3353    3978.6779    4842.6893    113.29297   -752.62827    16.363809    47.005565     19.99352    20.774904           90           90           90 
  396500    238.93986   -11086.342   -10010.156   -11086.342            0    2434.3212    46.990454    20.025278    20.922255            0            0            0    19687.778    2758.0025    2727.8543    1817.1068   -307.73071     351.7425    3.6846242    46.990454    20.025278    20.922255           90           90           90 
  397000    220.14499   -11131.901   -10140.367   -11131.901            0    2746.9957    46.638094    20.185622    20.865852            0            0            0    19643.509    2711.2295    2424.0093    3105.7483    -169.1192   -215.02319   -23.492331    46.638094    20.185622    20.865852           90           90           90 
  397500    231.86172   -11118.343   -10074.037   -11118.343            0     3238.436    46.795812     20.13421    20.777951            0            0            0    19576.916    4467.4968    1788.5709    3459.2404   -222.93499    400.12929     202.2237    46.795812     20.13421    20.777951           90           90           90 
  398000     227.8599   -11101.899   -10075.618   -11101.899            0    2703.5877    46.869982    20.076708    20.951723            0            0            0    19715.465    2905.4372    2455.7351    2749.5909   -285.72671    520.90967    -332.8553    46.869982    20.076708    20.951723           90           90           90 
  398500    234.14436   -11080.292   -10025.705   -11080.292            0    3519.8576    46.554723    20.048257    20.968094            0            0            0    19570.383    4326.1334    3036.6414    3196.7982   -371.45347   -680.58891   -424.12027    46.554723    20.048257    20.968094           90           90           90 
  399000    228.98912   -11152.419   -10121.051   -11152.419            0    3626.5988    46.816045    20.133074    20.655396            0            0            0    19468.762    3387.6244     3701.848    3790.3239   -123.38056   -307.09362    311.19949    46.816045    20.133074    20.655396           90           90           90 
  399500    228.03004   -11138.091   -10111.043   -11138.091            0    2456.0061     46.65908    20.036451    20.954967            0            0            0    19590.429    2991.5049    2934.6223    1441.8913    160.33159    363.75186    271.40778     46.65908    20.036451    20.954967           90           90           90 
  400000    220.64553   -11092.891   -10099.103   -11092.891            0    4355.8478    46.637462    20.039414    20.840079            0            0            0    19476.875    4676.4327    3611.6381    4779.4726    118.11965    158.20068    256.83213    46.637462    20.039414    20.840079           90           90           90 
  400500    224.48889    -11081.29   -10070.191    -11081.29            0    2146.9925    47.063252    20.023585    20.792725            0            0            0    19594.545    1944.2982    2454.6825    2041.9967    530.56568    478.98751   -586.81259    47.063252    20.023585    20.792725           90           90           90 
  401000    237.06812   -11100.408   -10032.652   -11100.408            0    2748.9276    46.804244    19.986532    20.912486            0            0            0     19562.68    2431.2253    3187.4403    2628.1171    166.36575    209.27911    1103.2323    46.804244    19.986532    20.912486           90           90           90 
  401500    241.18156   -11124.593    -10038.31   -11124.593            0    3704.1319    46.869985    20.015137    20.773282            0            0            0    19487.606    3706.6841    3410.0922    3995.6194    266.05316    -375.2325    137.43715    46.869985    20.015137    20.773282           90           90           90 
  402000    232.88883   -11107.636   -10058.704   -11107.636            0    3218.5269     46.83639    20.072898    20.754812            0            0            0    19512.472    3771.2245    2595.5773     3288.779   -256.02829   -275.65414    485.26243     46.83639    20.072898    20.754812           90           90           90 
  402500    235.67371    -11141.39   -10079.915    -11141.39            0    2668.4953    46.884749    20.038326    20.958781            0            0            0    19690.605    3223.2095    2201.9922    2580.2841   -138.97149   -66.596646   -475.93507    46.884749    20.038326    20.958781           90           90           90 
  403000    226.46563   -11094.996   -10074.993   -11094.996            0    4033.1169    46.884959    20.067997    20.698733            0            0            0    19475.173    3786.4846    3392.3129    4920.5532     153.6967    -295.4415    351.22438    46.884959    20.067997    20.698733           90           90           90 
  403500    217.38605   -11073.057   -10093.949   -11073.057            0    1182.4753    46.996893     20.03942    20.891473            0            0            0     19675.39     1644.469    766.24055    1136.7164   -27.352425   -162.61429    763.48242    46.996893     20.03942    20.891473           90           90           90 
  404000    218.73481   -11112.365   -10127.183   -11112.365            0     3056.538    46.686863    19.949748    21.010148            0            0            0    19568.667    3137.0179    2976.4616    3056.1344    242.20816    101.58561   -157.87984    46.686863    19.949748    21.010148           90           90           90 
  404500    226.89801   -11118.206   -10096.256   -11118.206            0    2574.7487    47.067446    20.110001    20.704309            0            0            0    19597.175    2118.1455    2619.3938    2986.7069   -206.19413    318.97812    166.22093    47.067446    20.110001    20.704309           90           90           90 
  405000       223.34   -11129.195   -10123.271   -11129.195            0    2676.2274    46.797265    20.054186    20.939653            0            0            0    19651.468    2051.0311    2878.8973    3098.7538    147.95603     705.1412   -524.40704    46.797265    20.054186    20.939653           90           90           90 
  405500     231.8804   -11092.933   -10048.543   -11092.933            0    3612.0065     46.54985    20.065154     20.89544            0            0            0    19516.966    3396.5945    3548.1229    3891.3021    310.52682    756.89272      675.175     46.54985    20.065154     20.89544           90           90           90 
  406000    226.64299   -11077.754   -10056.954   -11077.754            0     4378.026    46.742947    20.123184    20.715268            0            0            0    19485.131    4224.6775    4492.7803    4416.6203   -263.77775     133.1921    469.67488    46.742947    20.123184    20.715268           90           90           90 
  406500    231.22514   -11141.319    -10099.88   -11141.319            0    3530.9721    46.753128    19.977598    20.885104            0            0            0    19507.005    3921.0821    3745.7722     2926.062   -6.1859819   -161.47718    88.758541    46.753128    19.977598    20.885104           90           90           90 
  407000    233.76193   -11138.722   -10085.857   -11138.722            0    3097.0419    47.001112    20.036291    20.817142            0            0            0    19604.085    2565.4558    3635.4778    3090.1921   -567.94222    1137.0598    316.52827    47.001112    20.036291    20.817142           90           90           90 
  407500    229.97106   -11130.232   -10094.441   -11130.232            0    3214.7474    46.572903    20.130744    20.794311            0            0            0    19495.647    2803.0339    3167.8466    3673.3618    193.82096    246.85363    113.10391    46.572903    20.130744    20.794311           90           90           90 
  408000       229.13   -11113.482   -10081.479   -11113.482            0    3517.7262    46.690585    20.098945    20.834357            0            0            0    19551.617    4334.0336    2650.9734    3568.1716    76.695116   -748.54526    303.82611    46.690585    20.098945    20.834357           90           90           90 
  408500    234.05939   -11111.634    -10057.43   -11111.634            0    3893.3691    46.555715    19.950243    20.915733            0            0            0    19426.488    4910.4977    2884.0828    3885.5269   -51.451937    675.21516    338.36315    46.555715    19.950243    20.915733           90           90           90 
  409000    231.51603   -11100.549     -10057.8   -11100.549            0    3566.2619    46.825748    20.052147    20.841962            0            0            0    19569.702    3280.7637    3922.1559    3495.8662   -153.31067   -628.52895   -258.69124    46.825748    20.052147    20.841962           90           90           90 
  409500    224.18376   -11126.496   -10116.771   -11126.496            0    3065.1282    46.883761    20.062002     20.80208            0            0            0    19566.064     2184.301    3111.7426    3899.3409    134.62904    254.72493    154.30021    46.883761    20.062002     20.80208           90           90           90 
  410000    226.14561   -11132.001    -10113.44   -11132.001            0    2767.3461    46.344179     20.06358    21.007195            0            0            0    19533.123    3881.9099    1701.2109    2718.9175   -39.003664    393.78556    -174.1809    46.344179     20.06358    21.007195           90           90           90 
  410500    227.08446   -11062.702   -10039.912   -11062.702            0     1988.272    46.661266    20.307313    20.791381            0            0            0    19701.183    2194.9403    722.20437    3047.6713   -278.95998   -721.46074    184.50016    46.661266    20.307313    20.791381           90           90           90 
  411000    239.59024   -11081.523   -10002.407   -11081.523            0    2450.1997    46.693923    20.081497     20.93831            0            0            0    19633.516    1933.1336    2982.7904    2434.6751   -37.229252   -499.11198    -19.31959    46.693923    20.081497     20.93831           90           90           90 
  411500    224.47323   -11133.266   -10122.238   -11133.266            0    3445.9127    46.906693    19.946291    20.871014            0            0            0    19527.224    2728.7548    3566.5667    4042.4168    33.755557    78.514271    954.01032    46.906693    19.946291    20.871014           90           90           90 
  412000    240.37774   -11172.355   -10089.692   -11172.355            0    2988.8272    46.912382    19.993814    20.869371            0            0            0    19574.582    2051.1708    3436.5418    3478.7691    449.67919   -132.01911     275.5058    46.912382    19.993814    20.869371           90           90           90 
  412500    231.61212   -11111.952   -10068.771   -11111.952            0    2642.1569    47.051287    19.978271    20.971134            0            0            0    19712.936    2294.8071    3105.1789    2526.4846   -528.50685     253.5024    191.12992    47.051287    19.978271    20.971134           90           90           90 
  413000    233.56294   -11152.842   -10100.874   -11152.842            0     3697.814    46.675823    20.080573     20.81648            0            0            0    19510.813    3676.2733    4065.8679    3351.3008   -277.98724   -50.036782   -759.48286    46.675823    20.080573     20.81648           90           90           90 
  413500    232.63315   -11115.671   -10067.891   -11115.671            0    3156.8699    46.921357    19.998092    20.818837            0            0            0    19535.099    2372.7783    3849.6081    3248.2233   -99.817191   -130.88393    392.91525    46.921357    19.998092    20.818837           90           90           90 
  414000    229.64611   -11118.287    -10083.96   -11118.287            0    3250.9367    46.401211    20.249311    20.817449            0            0            0     19559.92     4379.275    1542.7925    3830.7426   -166.45411    865.00121    301.41867    46.401211    20.249311    20.817449           90           90           90 
  414500    229.35681   -11158.251   -10125.227   -11158.251            0    2095.9705    46.725529    20.067004    20.888586            0            0            0    19586.003    2562.2691    2146.6965    1578.9459   -34.881843     29.30978    609.15437    46.725529    20.067004    20.888586           90           90           90 
  415000    225.02826   -11111.747   -10098.219   -11111.747            0    1942.1833    46.682659    20.069605    20.940046            0            0            0    19618.782    1959.6531    2874.8604    992.03625    189.03124    1268.0314   -350.47547    46.682659    20.069605    20.940046           90           90           90 
  415500    229.55476   -11137.173   -10103.258   -11137.173            0    3837.7241    46.717016    19.972818    20.861729            0            0            0    19465.463    4114.8012    3094.8932     4303.478    218.05805   -396.43275   -156.21033    46.717016    19.972818    20.861729           90           90           90 
  416000    228.67674   -11137.374   -10107.413   -11137.374            0    2829.6592    46.596067    20.050512     20.91558            0            0            0    19540.903    2289.8067    3205.2838     2993.887   -263.93929    325.09834   -313.96452    46.596067    20.050512     20.91558           90           90           90 
  416500     231.5018   -11141.166   -10098.481   -11141.166            0    2031.4816    47.283547    20.036938    20.690461            0            0            0    19602.505    765.15156    2486.7818    2842.5115    -259.3907   -60.385993    165.39713    47.283547    20.036938    20.690461           90           90           90 
  417000    225.00319   -11112.402   -10098.987   -11112.402            0    2529.2206    46.667681     20.05139    20.924477            0            0            0    19580.119    2144.8973    2818.4684    2624.2961   -40.706753    672.06096   -36.894248    46.667681     20.05139    20.924477           90           90           90 
  417500    224.74489   -11097.315   -10085.064   -11097.315            0    2980.8619    46.743198    20.061924     20.86267            0            0            0    19564.146    3514.0717     2649.948     2778.566      128.199   -787.69434    469.17727    46.743198    20.061924     20.86267           90           90           90 
  418000    229.88775   -11139.971   -10104.556   -11139.971            0    4348.5577    46.720939     20.09718     20.73204            0            0            0    19466.539    4791.5955     3641.878    4612.1996   -299.66664   -175.83641    740.11523    46.720939     20.09718     20.73204           90           90           90 
  418500    225.39234   -11101.227   -10086.059   -11101.227            0    2188.5137     46.58233    20.222846    20.902195            0            0            0    19690.438    3227.6439    1348.7338    1989.1635   -319.36486    546.90999   -494.79166     46.58233    20.222846    20.902195           90           90           90 
  419000    228.55974   -11107.017   -10077.583   -11107.017            0    4095.0896    46.694393    19.972281    20.896451            0            0            0    19487.895    3426.1252    5313.5034    3545.6403    140.55311   -684.09063   -328.71282    46.694393    19.972281    20.896451           90           90           90 
  419500    233.11941   -11101.476   -10051.505   -11101.476            0    3737.2444    46.789628    20.052939    20.815377            0            0            0    19530.434    4273.9781    3643.6686    3294.0864   -448.08922   -588.55335     567.1097    46.789628    20.052939    20.815377           90           90           90 
  420000    227.37655   -11135.104   -10110.999   -11135.104            0    2886.3885    46.745866    20.125567      20.8196            0            0            0     19586.81    3609.8354    1857.7632     3191.567   -23.171071    1140.5813   -25.198414    46.745866    20.125567      20.8196           90           90           90 
  420500    243.04193   -11092.225   -9997.5637   -11092.225            0    2667.2466    46.493805    20.099089    21.024318            0            0            0     19646.87     3740.656    2528.3483    1732.7355    146.30281    557.77857    957.95164    46.493805    20.099089    21.024318           90           90           90 
  421000    232.84189   -11128.073   -10079.352   -11128.073            0    3003.5168    46.672686    20.140824    20.761188            0            0            0    19516.064    3228.8618    2999.9986    2781.6898   -470.34714    485.22193   -639.24031    46.672686    20.140824    20.761188           90           90           90 
  421500    235.32748   -11091.458   -10031.542   -11091.458            0     2513.834    46.778091    20.185396    20.771897            0            0            0    19613.537    3223.3941    632.01023    3686.0976   -376.61726    62.073299   -444.66824    46.778091    20.185396    20.771897           90           90           90 
  422000    232.77201   -11086.395   -10037.989   -11086.395            0    3465.8243    46.614791    20.010502    20.962081            0            0            0    19553.122    5478.8477    2279.9126    2638.7125    405.96944    532.35934    509.56325    46.614791    20.010502    20.962081           90           90           90 
  422500    227.44002   -11087.616   -10063.226   -11087.616            0    2720.1046    46.764721    20.105514     20.88071            0            0            0    19632.643    3444.7068    2198.8082     2516.799   -118.21743   -93.921441     297.2175    46.764721    20.105514     20.88071           90           90           90 
  423000    232.93194   -11128.771   -10079.644   -11128.771            0    2542.2797    46.753793    20.174786    20.821598            0            0            0    19639.926    2776.4826    2312.9325     2537.424   -417.62129   -240.06118   -327.21089    46.753793    20.174786    20.821598           90           90           90 
  423500    228.93543   -11139.825   -10108.699   -11139.825            0    1810.8154    46.758975    20.108915    20.920168            0            0            0    19670.654    1632.9523    1724.9285    2074.5654  -0.33887031     400.9431    137.72523    46.758975    20.108915    20.920168           90           90           90 
  424000    227.34674   -11143.145   -10119.174   -11143.145            0    3585.1171    46.756858    20.001123    20.791507            0            0            0    19444.003     4086.081    2993.3027    3675.9675   -166.32858    1271.9696   -311.79023    46.756858    20.001123    20.791507           90           90           90 
  424500    230.17408   -11080.323   -10043.618   -11080.323            0    3125.4459    47.031535    20.055258     20.84373            0            0            0    19660.423     3399.815    1901.4282    4075.0945   -351.47696    793.66048   -235.16974    47.031535    20.055258     20.84373           90           90           90 
  425000    236.48133   -11113.199   -10048.087   -11113.199            0    2388.6367    46.885463    20.095775    20.816414            0            0            0     19613.22    2966.6829      2213.11    1986.1173    215.82753   -39.744685   -478.48538    46.885463    20.095775    20.816414           90           90           90 
  425500    235.13354   -11099.207   -10040.164   -11099.207            0    1821.0781    46.778922    20.022373    21.069326            0            0            0    19734.058    2147.5259    2111.1489    1204.5594   -57.331978     69.67712   -387.69533    46.778922    20.022373    21.069326           90           90           90 
  426000    231.86297   -11096.815   -10052.504   -11096.815            0    3110.1831    46.766204    20.058813    20.850929            0            0            0    19559.726     4049.141    3100.2501    2181.1582   -258.19831     806.6035    197.67978    46.766204    20.058813    20.850929           90           90           90 
  426500    230.06292   -11097.977   -10061.773   -11097.977            0    3959.3475    46.755152    19.980568    20.866151            0            0            0    19493.043    4707.6093    3230.4123    3940.0208  -0.97388124    175.87404   -151.39804    46.755152    19.980568    20.866151           90           90           90 
  427000    223.88571   -11109.116   -10100.734   -11109.116            0    3025.8405    46.622742    20.162956    20.887207            0            0            0    19635.067    2833.7849    2705.5319    3538.2047   -468.48292   -20.088623   -97.280932    46.622742    20.162956    20.887207           90           90           90 
  427500     238.4123   -11106.974   -10033.164   -11106.974            0    3505.9024    46.715568    20.042076    20.753694            0            0            0    19431.205    4347.7625    2122.8412    4047.1034   -303.40699    137.21017    207.80383    46.715568    20.042076    20.753694           90           90           90 
  428000    229.61881   -11117.636   -10083.432   -11117.636            0    2838.8381    46.524832     20.14016    21.000043            0            0            0     19677.41    2955.4006    3410.3505     2150.763    49.636432   -84.933163   -136.01125    46.524832     20.14016    21.000043           90           90           90 
  428500    239.62761   -11128.241   -10048.958   -11128.241            0    3109.8565     46.58646    20.200295    20.727991            0            0            0    19506.289    4344.3984    1859.3617    3125.8094   -138.20858   -237.36286    70.006246     46.58646    20.200295    20.727991           90           90           90 
  429000    235.71269   -11095.381    -10033.73   -11095.381            0    2015.6981    46.972208    20.056289    20.866931            0            0            0     19658.49    2281.2449     1582.444    2183.4056   -100.86607    403.74562    -277.2715    46.972208    20.056289    20.866931           90           90           90 
  429500    235.98343   -11081.884   -10019.014   -11081.884            0    3960.8097    46.574792    19.976754    20.959056            0            0            0    19500.581    3913.3676    3836.5349    4132.5265    325.76723     -756.869    534.41539    46.574792    19.976754    20.959056           90           90           90 
  430000    220.96486   -11097.751   -10102.524   -11097.751            0    3632.0359    46.765384    20.046966    20.776612            0            0            0    19478.157    3971.9464    2836.9673     4087.194    14.099656   -613.73014   -93.340341    46.765384    20.046966    20.776612           90           90           90 
  430500    237.42164   -11136.537   -10067.189   -11136.537            0    3171.0688    46.860266    19.947122    20.860584            0            0            0    19498.961    2069.1791    4152.0434    3291.9838    89.358126   -266.74633   -91.669516    46.860266    19.947122    20.860584           90           90           90 
  431000    230.39249   -11167.727   -10130.038   -11167.727            0     3548.269     46.73019    19.934333     20.95437            0            0            0    19519.732    3558.4159    3577.9501    3508.4411    106.10495    1321.6662    529.03587     46.73019    19.934333     20.95437           90           90           90 
  431500    233.58696   -11135.443   -10083.366   -11135.443            0    2709.4484    46.799409    20.088951    20.772159            0            0            0    19528.967    3705.6024    1503.4446    2919.2983   -211.39452    788.23448   -698.13149    46.799409    20.088951    20.772159           90           90           90 
  432000    230.06607   -11098.398   -10062.179   -11098.398            0    2519.6199    46.892136    20.111962    20.891056            0            0            0    19702.206    2469.7304    2949.3971    2139.7322    239.71511    134.30383    550.48513    46.892136    20.111962    20.891056           90           90           90 
  432500    224.30578   -11102.072   -10091.798   -11102.072            0    1893.1935     46.71552    20.171865    20.995073            0            0            0    19784.479    1586.2924    1941.7726    2151.5156    207.52036   -112.17251    191.96761     46.71552    20.171865    20.995073           90           90           90 
  433000    231.22599     -11112.1   -10070.657     -11112.1            0    2865.7706    46.810756    19.997668    20.867331            0            0            0    19534.032    2331.1702    3339.7798    2926.3617   -318.10792    -50.37052   -11.995095    46.810756    19.997668    20.867331           90           90           90 
  433500    223.82637   -11101.662   -10093.547   -11101.662            0    3451.9718    46.893676    20.122237    20.685728            0            0            0     19519.17    3859.5427    2893.0516    3603.3211    41.384849    140.01485    1218.5868    46.893676    20.122237    20.685728           90           90           90 
  434000    230.02149   -11097.423   -10061.405   -11097.423            0    2631.5887    46.763116    19.955438    21.031775            0            0            0      19626.4    1840.0527    3575.6217    2479.0918   -121.40442    837.38984   -430.11209    46.763116    19.955438    21.031775           90           90           90 
  434500    239.97011   -11115.212   -10034.386   -11115.212            0    3087.3666    46.995198    19.940073     20.85997            0            0            0    19547.621    2782.5236    3279.0425    3200.5336    339.10026   -512.22972    72.748579    46.995198    19.940073     20.85997           90           90           90 
  435000    224.51853   -11154.642    -10143.41   -11154.642            0    2591.8769    46.823878    20.115225     20.69902            0            0            0    19495.845     2849.582     2515.785    2410.2636    301.44547    240.85863   -370.39784    46.823878    20.115225     20.69902           90           90           90 
  435500    221.93427   -11119.811   -10120.218   -11119.811            0    3518.8874    46.810698    19.896447    21.041155            0            0            0    19597.029    4202.6865    3137.3917     3216.584    81.827444     -264.894    759.38718    46.810698    19.896447    21.041155           90           90           90 
  436000    234.05952   -11100.147   -10045.942   -11100.147            0    3709.2837    46.707698    20.007207    20.832954            0            0            0    19468.199    5034.9999     3572.894     2519.957    116.36213   -434.66955    674.64496    46.707698    20.007207    20.832954           90           90           90 
  436500    218.20737   -11116.433   -10133.626   -11116.433            0    2003.7749    46.875403    20.108518    20.809369            0            0            0    19614.804      1675.87    1226.7295    3108.7253   -194.42884    351.94973    305.46385    46.875403    20.108518    20.809369           90           90           90 
  437000    230.42916   -11115.655   -10077.801   -11115.655            0    3440.2723     46.80558    19.995035    20.819055            0            0            0    19484.121    4568.0909     2539.664    3213.0619   -513.19217    316.59224    688.79552     46.80558    19.995035    20.819055           90           90           90 
  437500    233.03599   -11075.061   -10025.466   -11075.061            0    3608.8045    46.635732    19.998419    20.900569            0            0            0    19492.726    3854.7812     3483.753    3487.8792   -323.83001    268.88209    875.65234    46.635732    19.998419    20.900569           90           90           90 
  438000    229.13499   -11125.345   -10093.321   -11125.345            0    3404.1488    46.670278    20.123994    20.861108            0            0            0    19592.594    2837.7998    3395.7834    3978.8632   -130.85423   -190.33944   -917.14542    46.670278    20.123994    20.861108           90           90           90 
  438500    229.54858   -11115.161   -10081.273   -11115.161            0    2640.3278    46.772295    20.121699    20.852606            0            0            0    19625.181    3533.8733    1686.5432    2700.5667    78.780882   -89.018889    14.138564    46.772295    20.121699    20.852606           90           90           90 
  439000    231.69328    -11096.06   -10052.512    -11096.06            0    2701.1979    46.673759    20.072723    20.890764            0            0            0    19571.918    3211.2112    2973.1357    1919.2467   -248.97643    469.41677   -136.82813    46.673759    20.072723    20.890764           90           90           90 
  439500     229.6803   -11081.249   -10046.768   -11081.249            0    2928.2928    46.848501    20.046709    20.926768            0            0            0    19653.547    2473.3233    2908.9003    3402.6549   -154.66823   -607.03119   -229.67296    46.848501    20.046709    20.926768           90           90           90 
  440000    226.00393   -11152.013    -10134.09   -11152.013            0    3101.5023    47.001453    19.981357    20.789234            0            0            0    19524.267    1486.1625    4815.9647    3002.3798   -29.125889   -151.61673    835.25586    47.001453    19.981357    20.789234           90           90           90 
  440500     231.4436    -11130.72   -10088.297    -11130.72            0    3297.8083    46.538236    19.904621    20.996705            0            0            0    19449.793    4141.8456    3036.6513    2714.9279   -415.05519   -39.456248    -180.4129    46.538236    19.904621    20.996705           90           90           90 
  441000    227.01974    -11190.43   -10167.932    -11190.43            0     2227.583    46.784461       20.137    20.797043            0            0            0    19592.867    1686.2733    2245.0781    2751.3975    307.04136   -58.097361     812.5894    46.784461       20.137    20.797043           90           90           90 
  441500    232.73555    -11106.77   -10058.528    -11106.77            0    3430.7726    46.926941    19.991555    20.847515            0            0            0     19557.94    3495.5555    3442.2078    3354.5543     159.5017   -392.77704    218.69394    46.926941    19.991555    20.847515           90           90           90 
  442000    226.98939   -11112.946   -10090.585   -11112.946            0    2034.1735    46.883629    19.957424    20.961797            0            0            0     19613.46    986.25801    3030.2473    2086.0153   -49.444738    266.69282    467.37148    46.883629    19.957424    20.961797           90           90           90 
  442500    232.44773    -11101.47   -10054.525    -11101.47            0     2289.677    46.845915    20.096613    20.880379            0            0            0    19657.712    3142.1059    1920.2175    1806.7077   -616.16662    1220.1481    212.90505    46.845915    20.096613    20.880379           90           90           90 
  443000     234.6589   -11133.938   -10077.034   -11133.938            0    3549.3933    46.947679    20.048137    20.723178            0            0            0    19504.935    2535.5014     3757.133    4355.5454    572.87306   -93.843337   -12.169776    46.947679    20.048137    20.723178           90           90           90 
  443500    233.38563   -11122.683   -10071.513   -11122.683            0     3861.305     46.70376    20.081686    20.918381            0            0            0    19619.145    3181.6019    4337.8455    4064.4675    372.83294   -208.82552   -50.739888     46.70376    20.081686    20.918381           90           90           90 
  444000    229.92742   -11112.565   -10076.971   -11112.565            0    3529.7084    46.738363    20.055408    20.871812            0            0            0    19564.337    3120.0446    3602.6973    3866.3832   -120.13999   -293.00517    553.30708    46.738363    20.055408    20.871812           90           90           90 
  444500    229.48108   -11153.671   -10120.088   -11153.671            0    2761.8133    46.893154    20.065069    20.774852            0            0            0    19547.357    2620.6779    2467.3361    3197.4259     248.0342    412.61743    266.10487    46.893154    20.065069    20.774852           90           90           90 
  445000    231.98016   -11108.839       -10064   -11108.839            0    3005.2151    46.669423    20.049567    20.900164            0            0            0    19556.319    3778.1102    2713.2334    2524.3017   -961.54348    565.37117   -126.00624    46.669423    20.049567    20.900164           90           90           90 
  445500    228.38165   -11083.915   -10055.283   -11083.915            0    2081.7212     46.89521    20.074779    20.888453            0            0            0    19664.619    1140.6041    2238.9954     2865.564   -236.71179    105.84951    126.67932     46.89521    20.074779    20.888453           90           90           90 
  446000    231.97407   -11105.434   -10060.622   -11105.434            0    3030.3616    46.683139    20.138737    20.866715            0            0            0    19617.622    2657.5445    2914.0635    3519.4768    259.03658    557.58017    410.83125    46.683139    20.138737    20.866715           90           90           90 
  446500    228.17324   -11110.847   -10083.153   -11110.847            0    2269.5571    46.911737    20.023791      20.8126            0            0            0    19550.333    2257.6367    1974.0563    2576.9782    371.54836    284.40948    192.95434    46.911737    20.023791      20.8126           90           90           90 
  447000     232.5588    -11097.93   -10050.485    -11097.93            0    2152.7582    46.774673    20.006003    21.031921            0            0            0     19681.13    1376.4395    3531.7853    1550.0499   -25.228477   -136.82582   -82.229161    46.774673    20.006003    21.031921           90           90           90 
  447500    226.34906   -11112.521   -10093.044   -11112.521            0    3701.3084    47.256634    19.944921    20.743234            0            0            0    19551.117    3440.6335    4222.0317      3441.26   -100.58108    136.01751    660.54768    47.256634    19.944921    20.743234           90           90           90 
  448000    226.09399   -11085.227   -10066.899   -11085.227            0    3778.7611    46.967795    19.956142    20.831876            0            0            0    19525.634    3803.6574    3767.8027    3764.8231   -283.64243   -283.27125    176.64333    46.967795    19.956142    20.831876           90           90           90 
  448500    230.58698   -11136.161   -10097.596   -11136.161            0    2094.6554    47.107903    20.035211     20.87599            0            0            0     19703.11    2945.6194    1134.0994    2204.2474    77.352759     243.6191    -175.5538    47.107903    20.035211     20.87599           90           90           90 
  449000    227.73976   -11124.022   -10098.282   -11124.022            0    2322.7786    46.850652    19.982626    20.896064            0            0            0    19562.876    1935.8032    3381.0218    1651.5107   -81.239463   -896.25897    386.25239    46.850652    19.982626    20.896064           90           90           90 
  449500    229.65119   -11133.792   -10099.442   -11133.792            0     2686.142    46.946407    20.034102    20.779642            0            0            0    19543.857    1596.8968    3610.1741    2851.3552     88.83243   -104.15549    159.67294    46.946407    20.034102    20.779642           90           90           90 
  450000    226.15129   -11079.516    -10060.93   -11079.516            0    3774.0325     46.94772     20.04652    20.721664            0            0            0    19501.954    4435.5898    2343.8639    4542.6439    77.984442   -43.023783    112.80668     46.94772     20.04652    20.721664           90           90           90 
  450500    231.44901   -11107.545   -10065.098   -11107.545            0    3513.8355    46.632138    19.968389    20.983271            0            0            0    19538.965    4105.4632    3324.9112    3111.1322   -436.84407    492.23553    517.75155    46.632138    19.968389    20.983271           90           90           90 
  451000    222.24186    -11161.53   -10160.552    -11161.53            0    2854.7826    46.663646    20.098324    20.818025            0            0            0    19524.416    2581.0857    3019.4609    2963.8014   -719.41729  -0.47808008    142.06732    46.663646    20.098324    20.818025           90           90           90 
  451500     226.1377   -11115.831   -10097.306   -11115.831            0    3287.3211    46.735435     20.10802    20.799608            0            0            0    19546.579    4111.2281    2905.4115    2845.3237    243.07416   -433.79695    669.97964    46.735435     20.10802    20.799608           90           90           90 
  452000    230.77758   -11107.152   -10067.729   -11107.152            0     2428.769    46.986055    20.008301    20.918073            0            0            0    19665.313     3062.957    2025.7751    2197.5749   -384.83711    807.13126   -595.66591    46.986055    20.008301    20.918073           90           90           90 
  452500    227.82954   -11128.501   -10102.356   -11128.501            0     4002.833    46.837716    19.938119    20.925522            0            0            0    19541.424    3885.5716    4217.7807    3905.1466    192.37151    366.72324    1125.0234    46.837716    19.938119    20.925522           90           90           90 
  453000    224.89176   -11146.574   -10133.661   -11146.574            0    1686.9654    46.905167    20.133073     20.72548            0            0            0    19572.007    1976.0254    639.86901    2445.0016    245.50745    166.43103    465.83953    46.905167    20.133073     20.72548           90           90           90 
  453500     241.0299   -11102.258   -10016.658   -11102.258            0    2971.5993    46.785948    20.093293    20.820628            0            0            0    19573.134    2972.8905    3097.2932    2844.6143   -22.078928   -320.27961   -96.146553    46.785948    20.093293    20.820628           90           90           90 
  454000    232.94758   -11115.196       -10066   -11115.196            0    3596.9117    46.717726    20.073346    20.879448            0            0            0    19580.351    3861.4519    3863.2337    3066.0495    558.19995   -18.910572   -268.37756    46.717726    20.073346    20.879448           90           90           90 
  454500    233.78796   -11071.808   -10018.826   -11071.808            0    2247.5327    47.106044    20.075337    20.829579            0            0            0    19697.901    2238.3355     2027.805    2476.4576    26.201558    566.75455    396.88201    47.106044    20.075337    20.829579           90           90           90 
  455000    230.25442   -11091.193   -10054.126   -11091.193            0     3814.827    46.869315    19.990228    20.886989            0            0            0     19569.61    4379.0469    3878.8622    3186.5719   -156.15339   -700.78127    200.71165    46.869315    19.990228    20.886989           90           90           90 
  455500    228.46564   -11122.618   -10093.607   -11122.618            0    3997.0754    46.888878    19.962236    20.918746            0            0            0    19580.089    3832.0841     4952.463    3206.6791    -275.2009    767.42404   -278.21493    46.888878    19.962236    20.918746           90           90           90 
  456000    227.93315   -11051.377   -10024.766   -11051.377            0    3136.0753    47.120263    19.983437    20.757357            0            0            0    19545.643    2148.8145    3468.0093    3791.4021   -56.352054    350.62867    91.625889    47.120263    19.983437    20.757357           90           90           90 
  456500    223.23748   -11130.064   -10124.601   -11130.064            0    2058.0033    46.883948    20.009267    21.015599            0            0            0    19715.016    1621.4011    2419.7517    2132.8572    382.75948   -827.84205    840.46558    46.883948    20.009267    21.015599           90           90           90 
  457000    231.62702   -11157.494   -10114.245   -11157.494            0    2680.3977    46.748022    20.049086    20.903257            0            0            0    19591.684    3082.9736    3467.0667    1491.1528   -14.868978   -97.532745   -383.67756    46.748022    20.049086    20.903257           90           90           90 
  457500    229.70515   -11089.209   -10054.617   -11089.209            0    3853.9057    46.988509    20.054387    20.619268            0            0            0    19430.067    3608.8241    3408.7408    4544.1522    227.85031    558.47855    720.63793    46.988509    20.054387    20.619268           90           90           90 
  458000    222.97765   -11112.476   -10108.184   -11112.476            0    2932.3122    46.743374    20.019991    21.050034            0            0            0    19698.663    2771.4019    4221.0113    1804.5234   -309.87875    9.2740571   -69.363134    46.743374    20.019991    21.050034           90           90           90 
  458500    232.67868   -11126.281   -10078.295   -11126.281            0    3192.8502    46.882152    20.063294    20.804524            0            0            0    19568.952    3137.7369    3311.3946    3129.4192   -402.32001    56.238297    221.61433    46.882152    20.063294    20.804524           90           90           90 
  459000    234.41829   -11158.679   -10102.858   -11158.679            0    2526.3302    46.744091    20.178299    20.786613            0            0            0    19606.271    2826.5362    2183.1732    2569.2812   -301.21892     150.4679    127.10154    46.744091    20.178299    20.786613           90           90           90 
  459500    226.09189   -11131.969    -10113.65   -11131.969            0    2289.2159    46.565818    20.044428    21.040669            0            0            0    19639.049    2665.7376    3375.4254    826.48477    481.05052    222.31785    440.26305    46.565818    20.044428    21.040669           90           90           90 
  460000    236.87849   -11087.684   -10020.782   -11087.684            0    2654.0913    47.010167    20.062826    20.850561            0            0            0    19665.348    2272.3286     3416.251    2273.6943    77.467148    -490.0625   -160.49124    47.010167    20.062826    20.850561           90           90           90 
  460500    230.21261   -11076.877   -10039.999   -11076.877            0    2851.1342    46.980736    19.991178    20.801772            0            0            0     19537.03    2753.9879     2909.713    2889.7017    81.468053    254.48471   -396.94072    46.980736    19.991178    20.801772           90           90           90 
  461000    235.83809   -11117.256   -10055.041   -11117.256            0     2353.529    46.767117    20.051193     21.02431            0            0            0    19715.262    1691.5044    3033.4555    2335.6272     355.5215    366.49013   -119.82993    46.767117    20.051193     21.02431           90           90           90 
  461500    224.36561   -11116.406   -10105.862   -11116.406            0    3691.9514    46.889089    20.091352    20.669091            0            0            0    19471.631    3648.8152    2788.8977    4638.1412     460.1638    48.932558    243.41275    46.889089    20.091352    20.669091           90           90           90 
  462000    226.06095    -11076.79   -10058.611    -11076.79            0    2870.4658    46.483711    20.138997    20.888323            0            0            0    19554.297    2719.9602    2492.7565    3398.6806    3.9107892   -486.62186    608.75097    46.483711    20.138997    20.888323           90           90           90 
  462500    232.16799   -11073.434   -10027.748   -11073.434            0    2816.6267    46.658145    20.057076    20.953873            0            0            0    19609.178    2486.2047    2883.7987    3079.8767   -415.33151    -69.82317   -843.31271    46.658145    20.057076    20.953873           90           90           90 
  463000    232.22745   -11085.714   -10039.761   -11085.714            0    2767.1333     46.79338    20.148631    20.753399            0            0            0    19566.773    3281.5711    1598.1533    3421.6755    205.29619    251.43083   -262.38717     46.79338    20.148631    20.753399           90           90           90 
  463500    231.03145   -11119.953   -10079.386   -11119.953            0    2782.6903    46.847854    20.049947    20.863372            0            0            0    19596.903    2992.0185    2570.8498    2785.2024    143.60668    1792.5906    307.67507    46.847854    20.049947    20.863372           90           90           90 
  464000    232.97566   -11098.933    -10049.61   -11098.933            0    3003.8843    46.793023    19.912746    20.994651            0            0            0    19562.345    3329.7712    3127.0666    2554.8151   -405.81778    1532.5939    294.26777    46.793023    19.912746    20.994651           90           90           90 
  464500    228.17741   -11126.658   -10098.946   -11126.658            0     2799.346    46.888983    20.072601    20.743756            0            0            0    19523.689    2430.7468    2817.9929    3149.2984   -109.69336    70.417302    304.39186    46.888983    20.072601    20.743756           90           90           90 
  465000    224.10694   -11077.966   -10068.587   -11077.966            0    3298.7882    46.834163     19.91708    20.940156            0            0            0    19532.973    3627.9573    4596.6957    1671.7115    59.685294    258.98925   -666.55286    46.834163     19.91708    20.940156           90           90           90 
  465500    231.99114   -11142.394   -10097.505   -11142.394            0    2550.5665    46.836887    20.072316    20.868502            0            0            0    19618.996     1756.075    3540.0392    2355.5854  -0.41626397   -31.749288    354.82231    46.836887    20.072316    20.868502           90           90           90 
  466000     236.9894   -11117.671    -10050.27   -11117.671            0    3899.8374    46.735278    20.042189    20.795554            0            0            0    19478.723    3607.8363    3763.4067    4328.2692   -226.43292    243.78857   -314.05439    46.735278    20.042189    20.795554           90           90           90 
  466500    233.20099   -11096.277   -10045.939   -11096.277            0    3636.1886    46.646013    20.165699    20.815379            0            0            0    19579.975      4639.65    2367.6826    3901.2331    -441.9548   -383.35391   -426.86906    46.646013    20.165699    20.815379           90           90           90 
  467000    234.36671   -11100.994   -10045.405   -11100.994            0    2656.7372    46.824413     19.99607    20.947444            0            0            0    19613.181     2327.665    2793.4669    2849.0796    201.00046    642.58466   -408.15684    46.824413     19.99607    20.947444           90           90           90 
  467500    227.39892   -11161.453   -10137.248   -11161.453            0    2258.2404    46.981293    19.962238    20.815689            0            0            0    19522.031    2215.2373    2239.3937    2320.0903    26.541706      207.353    1140.2083    46.981293    19.962238    20.815689           90           90           90 
  468000    227.52401   -11125.427   -10100.658   -11125.427            0     1249.729    46.952048    20.091588    20.849133            0            0            0    19667.846    842.24896    1182.4037    1724.5343    77.869311   -716.74924    538.90373    46.952048    20.091588    20.849133           90           90           90 
  468500    224.68512   -11098.124   -10086.141   -11098.124            0    3473.5142     46.60202    20.133972     20.90131            0            0            0    19611.359    5318.9511    1865.6096    3235.9818    69.720975    28.320534   -74.436316     46.60202    20.133972     20.90131           90           90           90 
  469000    228.67369   -11085.823   -10055.876   -11085.823            0    2352.7597    46.693375    20.092577    20.907252            0            0            0     19614.98     2148.879    2029.2918    2880.1084   -224.61345    211.16068    -56.67793    46.693375    20.092577    20.907252           90           90           90 
  469500    231.90412   -11128.803   -10084.305   -11128.803            0    2276.3358    46.934901    20.108184    20.749602            0            0            0    19582.969    3194.7365    915.04256    2719.2282   -61.742536    804.00829    719.90175    46.934901    20.108184    20.749602           90           90           90 
  470000    231.85473   -11082.004   -10037.729   -11082.004            0    2808.6025    46.921026    19.976644    20.980488            0            0            0    19665.529    3625.5939    1887.5844    2912.6291    418.10525    -502.8093     199.5022    46.921026    19.976644    20.980488           90           90           90 
  470500    230.76472    -11119.51   -10080.144    -11119.51            0    2530.4795    46.954312    20.034111    20.875768            0            0            0    19637.582    990.30736    3821.4725    2779.6588   -313.29481    469.59742    1249.8618    46.954312    20.034111    20.875768           90           90           90 
  471000     227.3583   -11091.174   -10067.151   -11091.174            0    2574.8683    46.851908    20.136545    20.796533            0            0            0    19620.189    2511.5975    2248.5098    2964.4978   -472.64694    564.63124    255.07495    46.851908    20.136545    20.796533           90           90           90 
  471500    237.65961    -11133.21    -10062.79    -11133.21            0     3444.529    46.680066    20.064664    20.835901            0            0            0    19515.318    4178.2182    2974.0631    3181.3057    342.43025    700.37451    195.69809    46.680066    20.064664    20.835901           90           90           90 
  472000     240.1536   -11102.336   -10020.683   -11102.336            0    2497.0579    46.909356    20.072471    20.847787            0            0            0    19629.999    3157.8623    2151.4182    2181.8932   -418.04094   -547.03402    833.37566    46.909356    20.072471    20.847787           90           90           90 
  472500    237.16729   -11127.614   -10059.411   -11127.614            0    3454.6622    46.973732    20.074253    20.750288            0            0            0    19566.745    2235.3472    3616.8064    4511.8328    19.717268    446.25338   -92.029066    46.973732    20.074253    20.750288           90           90           90 
  473000    231.43808   -11064.315   -10021.917   -11064.315            0     4034.178    46.558503    20.107686    20.862219            0            0            0    19530.871     4620.192    4337.2348    3145.1072   -643.62448    941.38493   -198.66219    46.558503    20.107686    20.862219           90           90           90 
  473500    232.27639   -11081.123   -10034.949   -11081.123            0    2729.4848    46.662773    20.083788     20.87461            0            0            0    19562.959    2899.4266    2677.7579    2611.2698    -237.0148    -43.43948   -122.50754    46.662773    20.083788     20.87461           90           90           90 
  474000    233.69587   -11137.325   -10084.758   -11137.325            0    2676.1026     47.02007    20.002373     20.84192            0            0            0    19602.096    3105.8313    2405.3425     2517.134   -190.40578    13.068371   -251.50152     47.02007    20.002373     20.84192           90           90           90 
  474500    228.86983   -11085.329   -10054.498   -11085.329            0    2240.3578    46.859897      20.0567    20.844177            0            0            0    19590.502    2315.2544    2061.8191         2344    120.89884    363.68932    681.75649    46.859897      20.0567    20.844177           90           90           90 
  475000    230.87044   -11139.779   -10099.937   -11139.779            0    3413.9659    46.853508    19.956739    20.821825            0            0            0    19469.307    2970.6548    4328.0333    2943.2096    39.980609   -354.31868   -136.42607    46.853508    19.956739    20.821825           90           90           90 
  475500    232.16096   -11149.338   -10103.684   -11149.338            0    4053.2834    46.379036    20.044926    20.897453            0            0            0    19427.617    5152.6518    3691.4451    3315.7534    497.85797    505.53507    213.32109    46.379036    20.044926    20.897453           90           90           90 
  476000    229.24475   -11037.893   -10005.374   -11037.893            0    2905.8031    46.910842    20.157651    20.799254            0            0            0    19668.032    3100.4809    2641.5834    2975.3451    68.561771   -28.295366    139.30356    46.910842    20.157651    20.799254           90           90           90 
  476500    233.00735   -11097.896    -10048.43   -11097.896            0    3126.7474    46.561868    20.209208    20.878816            0            0            0    19646.517    3270.1153     3274.644    2835.4831   -2.1043957   -718.09631   -675.68516    46.561868    20.209208    20.878816           90           90           90 
  477000    235.27123   -11106.255   -10046.592   -11106.255            0    4074.1354    46.780663     19.94846    20.887242            0            0            0    19492.019    3658.5374    4392.9015    4170.9673   -53.562334     128.5733   -443.50276    46.780663     19.94846    20.887242           90           90           90 
  477500    240.62445   -11080.035   -9996.2617   -11080.035            0    3056.1444    46.972566    20.049552    20.773465            0            0            0     19564.01      1977.17    4068.2422    3123.0211     120.9068    47.085893    492.73507    46.972566    20.049552    20.773465           90           90           90 
  478000    233.61781   -11119.963   -10067.747   -11119.963            0    3856.6619    46.819387    19.904261    20.930888            0            0            0    19505.605    3582.3549    4478.4115    3509.2192   -100.33869   -755.62446   -296.75557    46.819387    19.904261    20.930888           90           90           90 
  478500    228.30012   -11138.109   -10109.844   -11138.109            0    2671.2897    47.005066     20.03565    20.788718            0            0            0    19578.339    2424.0214    2739.3334    2850.5143     107.4615    270.71172   -463.31447    47.005066     20.03565    20.788718           90           90           90 
  479000    225.95131   -11105.837   -10088.151   -11105.837            0    2535.0509    47.038794    20.029783    20.847322            0            0            0    19641.864     2341.084    2397.0851    2866.9834    142.65525    503.63893    79.033192    47.038794    20.029783    20.847322           90           90           90 
  479500    233.93876   -11146.768   -10093.107   -11146.768            0    2919.2894    46.998916    19.888653    20.987166            0            0            0    19617.651    2658.9662    3885.9017    2213.0004   -106.48422    51.665722     347.7478    46.998916    19.888653    20.987166           90           90           90 
  480000    226.92445   -11086.636   -10064.568   -11086.636            0    3029.3641     46.92271     20.01085    20.714349            0            0            0    19450.014    2803.4303     3571.471    2713.1909   -210.89342    432.39224    434.64497     46.92271     20.01085    20.714349           90           90           90 
  480500    230.24847   -11064.427   -10027.387   -11064.427            0    2989.6788    46.832996    20.031551    20.870106            0            0            0     19579.03    3339.6287    1990.0952    3639.3124    194.18912    578.35229   -641.62876    46.832996    20.031551    20.870106           90           90           90 
  481000    218.52482    -11149.33   -10165.093    -11149.33            0    4065.7388    46.418499    20.028114    20.805965            0            0            0    19342.785    4271.1438    4801.9968    3124.0757   -300.68205    818.88113   -124.65239    46.418499    20.028114    20.805965           90           90           90 
  481500    235.20985   -11105.809   -10046.423   -11105.809            0    2679.1098    46.916028    20.065994    20.835674            0            0            0    19615.052     3196.435    2469.4347    2371.4596     295.0486    93.918891    1076.2322    46.916028    20.065994    20.835674           90           90           90 
  482000     220.2249   -11143.069   -10151.175   -11143.069            0    2017.8804    46.759844     20.14009    20.857194            0            0            0     19642.21    1918.6979    1465.9365    2669.0068    72.846285   -228.10968    -240.6279    46.759844     20.14009    20.857194           90           90           90 
  482500    234.98877   -11090.199   -10031.808   -11090.199            0    3205.0732    46.816837    19.930615    20.829506            0            0            0    19435.769    2990.4988    3945.5141    2679.2067   -176.73921    643.83879    45.976098    46.816837    19.930615    20.829506           90           90           90 
  483000    222.19827   -11136.074   -10135.292   -11136.074            0     3734.586    46.843875    19.972916    20.834644            0            0            0    19493.076     3070.915    4068.6221    4064.2209    118.47262    52.418004   -215.68248    46.843875    19.972916    20.834644           90           90           90 
  483500    227.49616   -11101.244   -10076.601   -11101.244            0    2201.8053    46.922705    20.103389    20.935642            0            0            0    19748.705    2119.5348     1939.311    2546.5701     13.59399   -287.13307    463.58013    46.922705    20.103389    20.935642           90           90           90 
  484000    229.92478   -11090.161   -10054.579   -11090.161            0    4176.5498    46.564331    20.009128    20.884561            0            0            0    19458.388    4655.3176    4665.7965    3208.5354    312.86831   -3.9083348    397.73684    46.564331    20.009128    20.884561           90           90           90 
  484500    234.95096   -11141.877   -10083.657   -11141.877            0    2206.7038    47.038415    20.027631    20.773927            0            0            0    19570.453    1176.1095    2755.6598    2688.3421   -342.24235   -121.94587     112.3921    47.038415    20.027631    20.773927           90           90           90 
  485000    234.02287    -11099.33    -10045.29    -11099.33            0    2882.7082    46.918112    20.116808    20.799077            0            0            0    19631.056    3861.1666    2127.5178    2659.4401    99.723223    345.85852     263.8995    46.918112    20.116808    20.799077           90           90           90 
  485500    231.42469   -11112.336   -10069.999   -11112.336            0    3020.4227    46.504271    20.015755     20.95277            0            0            0    19503.218    3846.9615    3022.8301    2191.4765    109.70746   -963.35943   -748.66492    46.504271    20.015755     20.95277           90           90           90 
  486000    221.93958   -11155.148   -10155.531   -11155.148            0    3071.1055    46.700769    20.046505    20.924173            0            0            0    19588.942    4133.9074    2575.3866    2504.0225   -382.17863    308.15383    793.07652    46.700769    20.046505    20.924173           90           90           90 
  486500    232.16044   -11126.381    -10080.73   -11126.381            0    2420.0864    46.993251    20.139764    20.739663            0            0            0    19628.701    3052.7177    2411.5462    1795.9953    25.347775    5.2093538   -2.0517826    46.993251    20.139764    20.739663           90           90           90 
  487000     219.5607   -11128.157   -10139.255   -11128.157            0    1659.0471    47.010436    20.065912    20.886256            0            0            0    19702.157    2190.2921    1673.0442    1113.8049   -85.516075    97.395415    137.76008    47.010436    20.065912    20.886256           90           90           90 
  487500    226.81952   -11116.778   -10095.182   -11116.778            0    3495.9605    46.554069    19.986014    20.914142            0            0            0    19459.151    4193.5536    2846.7655    3447.5626    302.09143   -363.15861    -545.2727    46.554069    19.986014    20.914142           90           90           90 
  488000    234.44943   -11127.133   -10071.172   -11127.133            0    2761.2158    46.880955    20.058512      20.8751            0            0            0    19630.155    3648.3117    1841.9033    2793.4324    178.14237    308.84148   -8.8117897    46.880955    20.058512      20.8751           90           90           90 
  488500    226.68528   -11077.923   -10056.931   -11077.923            0    2226.3764    47.052402    20.152627    20.711631            0            0            0     19639.38     2949.969    316.77276    3412.3873    -546.7606   -163.34187    27.175977    47.052402    20.152627    20.711631           90           90           90 
  489000    232.58007   -11149.545   -10102.003   -11149.545            0    3157.5565    46.664519    20.075333    20.856765            0            0            0    19538.737     3000.387    2987.8287    3484.4537     28.57668   -203.95095    227.35309    46.664519    20.075333    20.856765           90           90           90 
  489500     226.7583   -11099.616   -10078.296   -11099.616            0     3112.094    46.843836    19.967656    20.872967            0            0            0    19523.771       3820.4    2667.5359    2848.3461   -182.23182    396.25542   -649.58171    46.843836    19.967656    20.872967           90           90           90 
  490000    230.95484   -11116.707   -10076.485   -11116.707            0     2648.753    47.026215    20.031928    20.801128            0            0            0    19595.199    2170.5701    2350.0771    3425.6117    205.90904    521.34467    6.6681537    47.026215    20.031928    20.801128           90           90           90 
  490500      238.024   -11100.229   -10028.168   -11100.229            0     3650.562    46.820459    20.126277    20.815315            0            0            0     19614.72    3986.0506    2883.5576    4082.0777    61.873937   -571.55536      744.504    46.820459    20.126277    20.815315           90           90           90 
  491000    233.66777   -11095.353   -10042.912   -11095.353            0    2555.0317    46.665594      20.1178    20.941681            0            0            0    19660.241    2037.7721     2859.363    2767.9601    18.481724   -430.74145   -221.08514    46.665594      20.1178    20.941681           90           90           90 
  491500    226.95064   -11118.497   -10096.311   -11118.497            0    2773.8727    46.872198    20.022758    20.843282            0            0            0    19561.643    2720.2022      3125.82     2475.596   -250.44921   -152.98446    535.00101    46.872198    20.022758    20.843282           90           90           90 
  492000    225.64496   -11109.154   -10092.848   -11109.154            0     2524.427    46.836144    20.106102    20.845797            0            0            0    19630.326     3664.511    1564.8461    2343.9239    214.31624   -66.305498   -665.12408    46.836144    20.106102    20.845797           90           90           90 
  492500     228.3762   -11171.221   -10142.613   -11171.221            0    3673.4939    47.043135    19.934396    20.801277            0            0            0    19506.948    2462.3146    5094.1553    3464.0118    32.047157    328.98236     586.1588    47.043135    19.934396    20.801277           90           90           90 
  493000    224.51522   -11114.876   -10103.659   -11114.876            0    3539.7404     46.82496    20.052939    20.834752            0            0            0    19563.375    4195.6682    3061.9918    3361.5613   -152.42077    900.87657    46.599226     46.82496    20.052939    20.834752           90           90           90 
  493500    237.63414   -11092.595    -10022.29   -11092.595            0    4280.6063    46.861157    19.928902    20.821979            0            0            0    19445.467    3013.6073    5222.8233    4605.3882    239.62775    272.83307    341.36823    46.861157    19.928902    20.821979           90           90           90 
  494000    233.09479   -11063.666   -10013.806   -11063.666            0    3579.0362    46.646981    20.079828    20.962391            0            0            0    19634.704    4723.0963    2366.6868    3647.3255   -141.14189   -1077.4286     433.1631    46.646981    20.079828    20.962391           90           90           90 
  494500    231.36409   -11124.236   -10082.171   -11124.236            0    3256.7793    46.684007    20.181322    20.761768            0            0            0    19560.596    3357.3343    2771.3006    3641.7031   -220.31434   -246.78274   -14.827621    46.684007    20.181322    20.761768           90           90           90 
  495000    238.53596   -11128.955   -10054.588   -11128.955            0    3854.6994    46.709709    20.095592    20.828379            0            0            0    19550.751    4953.9652    2404.6043    4205.5287    184.47705    224.55528    37.480332    46.709709    20.095592    20.828379           90           90           90 
  495500    234.65346   -11119.644   -10062.764   -11119.644            0    3295.0695    46.606351    20.020534    20.990745            0            0            0    19586.129    3174.5742    3818.4255    2892.2088   -70.217171     141.6006   -797.82162    46.606351    20.020534    20.990745           90           90           90 
  496000    233.30451   -11129.228   -10078.423   -11129.228            0    3124.6697     46.77998    20.209614    20.735512            0            0            0    19603.465    3304.0312    2732.5979    3337.3801    509.42551   -230.99887    723.70275     46.77998    20.209614    20.735512           90           90           90 
  496500    229.58308   -11118.975   -10084.932   -11118.975            0    2858.8921    46.812356    20.119816    20.808239            0            0            0    19598.365    1888.5026     3108.311    3579.8626    2.8517663    110.60402   -237.78694    46.812356    20.119816    20.808239           90           90           90 
  497000    230.43037    -11131.57   -10093.711    -11131.57            0    3798.6386    46.656353    20.029082    20.922362            0            0            0     19551.61    3174.3672    3849.7149    4371.8339   -71.580824   -141.74491    359.28003    46.656353    20.029082    20.922362           90           90           90 
  497500    228.54686   -11149.075   -10119.699   -11149.075            0    2740.6238    46.985297    19.962699    20.822735            0            0            0    19530.755    3287.7435    1917.3899    3016.7379     74.75432   -195.65702   -218.00939    46.985297    19.962699    20.822735           90           90           90 
  498000    231.42718   -11117.889    -10075.54   -11117.889            0    1700.4723    47.057456    19.955027     20.94349            0            0            0    19666.623    846.44237    2227.3343    2027.6403   -7.3790109   -57.222414   -43.632376    47.057456    19.955027     20.94349           90           90           90 
  498500    222.56064   -11118.322   -10115.908   -11118.322            0    2282.8074    46.789037    20.090047    20.887449            0            0            0    19634.076    3381.5866    1083.0087     2383.827     463.9012    726.23965   -173.24253    46.789037    20.090047    20.887449           90           90           90 
  499000    234.75687   -11080.217   -10022.872   -11080.217            0    3299.8699    46.678558    20.105116    20.798532            0            0            0    19518.961    3356.2863    2697.8424    3845.4811    519.32438    166.58782    48.023438    46.678558    20.105116    20.798532           90           90           90 
  499500    228.92734   -11127.089   -10095.999   -11127.089            0    3099.3675    46.596663    20.041679    20.919329            0            0            0    19536.046    2699.3243    4678.4111    1920.3671    -262.8971   -676.83759    34.577717    46.596663    20.041679    20.919329           90           90           90 
  500000    230.71736   -11074.553   -10035.401   -11074.553            0    2489.9439    46.934102    19.967324    20.897892            0            0            0    19584.426    2506.1504    3356.5664    1607.1149   -193.52354    320.27914    402.71894    46.934102    19.967324    20.897892           90           90           90 
Loop time of 902.671 on 32 procs for 500000 steps with 2268 atoms

Performance: 95.716 ns/day, 0.251 hours/ns, 553.911 timesteps/s
99.8% CPU use with 32 MPI tasks x 1 OpenMP threads

MPI task timing breakdown:
Section |  min time  |  avg time  |  max time  |%varavg| %total
---------------------------------------------------------------
Pair    | 208.92     | 242.39     | 286.98     | 143.9 | 26.85
Bond    | 0.52122    | 0.53944    | 0.55282    |   1.0 |  0.06
Kspace  | 318.22     | 361.9      | 395.2      | 116.2 | 40.09
Neigh   | 9.056      | 9.2004     | 9.3948     |   3.2 |  1.02
Comm    | 101.3      | 106.1      | 111.41     |  29.0 | 11.75
Output  | 2.8798     | 2.8808     | 2.8904     |   0.1 |  0.32
Modify  | 138.79     | 161.09     | 182.33     | 106.6 | 17.85
Other   |            | 18.58      |            |       |  2.06

Nlocal:        70.8750 ave          77 max          60 min
Histogram: 1 0 2 0 5 5 4 8 4 3
Nghost:        3146.53 ave        3202 max        3101 min
Histogram: 2 3 6 4 6 2 2 3 2 2
Neighs:        21889.1 ave       25542 max       16635 min
Histogram: 1 0 1 5 4 5 6 5 3 2

Total # of neighbors = 700450
Ave neighs/atom = 308.84039
Ave special neighs/atom = 2.0000000
Neighbor list builds = 15892
Dangerous builds = 0

unfix		3
unfix		2
unfix		1

write_data	data.final.${pid}
write_data	data.final.0
System init for write_data ...
PPPM initialization ...
  extracting TIP4P info from pair style
  using 12-bit tables for long-range coulomb (../kspace.cpp:340)
  G vector (1/distance) = 0.37280877
  grid = 48 27 27
  stencil order = 5
  estimated absolute RMS force accuracy = 0.0033191707
  estimated relative force accuracy = 9.9955839e-06
  using double precision FFTW3
  3d grid and FFT values/proc = 6006 1344
Last active /omp style is kspace_style pppm/tip4p/omp
WARNING: Not all mixed pair coeffs generated from mixing. Use write_data with 'pair ij' option to store all pair coeffs. (../write_data.cpp:312)

write_restart   restart.lmp.${pid}
write_restart   restart.lmp.0
System init for write_restart ...
PPPM initialization ...
  extracting TIP4P info from pair style
  using 12-bit tables for long-range coulomb (../kspace.cpp:340)
  G vector (1/distance) = 0.37280877
  grid = 48 27 27
  stencil order = 5
  estimated absolute RMS force accuracy = 0.0033191707
  estimated relative force accuracy = 9.9955839e-06
  using double precision FFTW3
  3d grid and FFT values/proc = 6006 1344
Last active /omp style is kspace_style pppm/tip4p/omp
Total wall time: 0:15:02
