LAMMPS (30 Jul 2021)
  using 1 OpenMP thread(s) per MPI task
package omp 0
using multi-threaded neighbor list subroutines
echo both

include		in.partitions
variable        pid world 0
include		in.temp
variable	temperature equal 230.0
variable	melttemp equal 450.0
variable	tempDamp equal 100.0
include		in.pressure
variable        pressure equal 3000.
variable        pressureDamp equal 1000.0 # This is 1 ps
include		in.seed
variable        seed world 745823

units		real
atom_style	full
include		in.box
read_data       iceIII-211.data
Reading data file ...
  orthogonal box = (0.0071020000 0.0044740000 -0.050387000) to (46.652896 19.995527 20.750385)
  8 by 2 by 2 MPI processor grid
  reading atoms ...
  2268 atoms
  scanning bonds ...
  2 = max bonds/atom
  scanning angles ...
  1 = max angles/atom
  reading bonds ...
  1512 bonds
  reading angles ...
  756 angles
Finding 1-2 1-3 1-4 neighbors ...
  special bond factors lj:    0        0        0       
  special bond factors coul:  0        0        0       
     2 = max # of 1-2 neighbors
     1 = max # of 1-3 neighbors
     1 = max # of 1-4 neighbors
     2 = max # of special neighbors
  special bonds CPU = 0.004 seconds
  read_data CPU = 0.021 seconds
include 	in.setup
variable	out_freq equal 500
variable	out_freq2 equal 500

timestep	1.0

neigh_modify    delay 5 every 1

include		in.tip4p
# This is TIP4P/Ice

# create groups ###
group ox type 2
756 atoms in group ox
group hy type 1
1512 atoms in group hy

# set charges - beside manually ###
set group ox charge -1.1794
Setting atom values ...
  756 settings made for charge
set group hy charge 0.5897
Setting atom values ...
  1512 settings made for charge

# ### TIP3P Potential Parameters ###
pair_style lj/cut/tip4p/long 2 1 1 1 0.1577 8.5
pair_coeff 1 1*2 0.000 0.000
pair_coeff 2 2 0.21084 3.1668
bond_style  harmonic
bond_coeff  1 450 0.9572
angle_style harmonic
angle_coeff 1 55 104.52
kspace_style pppm/tip4p 1.0e-5
pair_modify tail yes

thermo          ${out_freq}
thermo          500
thermo_style 	custom step temp pe etotal epair emol press lx ly lz xy xz yz vol pxx pyy pzz pxy pxz pyz

restart 	${out_freq} restart.lmp.${pid} restart2.lmp.${pid}
restart 	500 restart.lmp.${pid} restart2.lmp.${pid}
restart 	500 restart.lmp.0 restart2.lmp.${pid}
restart 	500 restart.lmp.0 restart2.lmp.0


include         in.dump
dump            myDump all atom ${out_freq2} dump.water.${pid}
dump            myDump all atom 500 dump.water.${pid}
dump            myDump all atom 500 dump.water.0
dump_modify     myDump append yes


timer           timeout 23:50:00 every 1000
New timer settings: style=normal  mode=nosync  timeout=23:50:00

fix 		0 all shake 1e-6 200 0 b 1 a 1
       0 = # of size 2 clusters
       0 = # of size 3 clusters
       0 = # of size 4 clusters
     756 = # of frozen angles
  find clusters CPU = 0.001 seconds
fix             1 all nph aniso ${pressure} ${pressure} ${pressureDamp}
fix             1 all nph aniso 3000 ${pressure} ${pressureDamp}
fix             1 all nph aniso 3000 3000 ${pressureDamp}
fix             1 all nph aniso 3000 3000 1000
fix             2 all temp/csvr ${temperature} ${temperature} ${tempDamp} ${seed}
fix             2 all temp/csvr 230 ${temperature} ${tempDamp} ${seed}
fix             2 all temp/csvr 230 230 ${tempDamp} ${seed}
fix             2 all temp/csvr 230 230 100 ${seed}
fix             2 all temp/csvr 230 230 100 745823
velocity        all create ${temperature} ${seed}
velocity        all create 230 ${seed}
velocity        all create 230 745823

run             25000
PPPM initialization ...
  extracting TIP4P info from pair style
  using 12-bit tables for long-range coulomb (../kspace.cpp:340)
  G vector (1/distance) = 0.3731327
  grid = 48 27 27
  stencil order = 5
  estimated absolute RMS force accuracy = 0.0032773105
  estimated relative force accuracy = 9.8695233e-06
  using double precision FFTW3
  3d grid and FFT values/proc = 6292 1344
Last active /omp style is kspace_style pppm/tip4p/omp
Neighbor list info ...
  update every 1 steps, delay 5 steps, check yes
  max neighbors/atom: 2000, page size: 100000
  master list distance cutoff = 10.8154
  ghost atom cutoff = 10.8154
  binsize = 5.4077, bins = 9 4 4
  1 neighbor lists, perpetual/occasional/extra = 1 0 0
  (1) pair lj/cut/tip4p/long/omp, perpetual
      attributes: half, newton on, omp
      pair build: half/bin/newton/omp
      stencil: half/bin/3d
      bin: standard
Per MPI rank memory allocation (min/avg/max) = 9.542 | 9.558 | 9.574 Mbytes
Step Temp PotEng TotEng E_pair E_mol Press Lx Ly Lz Xy Xz Yz Volume Pxx Pyy Pzz Pxy Pxz Pyz 
       0          230   -11706.567   -10670.646   -11706.567            0    2515.3229    46.645794    19.991053    20.800772            0            0            0     19396.69    9621.5165    1112.3362    -3187.884   -1405.5591   -391.02446    2271.5018 
     500     226.0236   -11175.571    -10157.56   -11175.571            0    4004.9367     46.85033    20.060194    20.833623            0            0            0    19579.995    3969.5149    4354.5346    3690.7606   -8.5882272    300.86361   -660.56292 
    1000      227.881   -11117.243   -10090.866   -11117.243            0    2870.2895    46.906421    20.015089    20.796781            0            0            0    19524.771    2997.1856    2759.5529    2854.1299    71.853213    108.77097   -664.51777 
    1500    227.62246   -11102.975   -10077.763   -11102.975            0    3183.8581     46.71348    19.986873    20.871969            0            0            0    19487.248    2896.7571    4226.0327    2428.7844    -205.8839   -284.90326   -328.33594 
    2000    233.03933   -11121.743   -10072.133   -11121.743            0    3026.0788    46.822585    20.108167    20.858224            0            0            0    19638.359    2369.4255    2767.3157    3941.4951   -3.5266783   -98.932467    586.00615 
    2500    237.09796   -11112.758   -10044.868   -11112.758            0    4458.4147    46.844858    20.093276     20.70428            0            0            0    19488.248    3512.0111    5652.2018    4211.0313   -91.465056   -126.87861   -526.07376 
    3000    231.58033   -11107.072   -10064.033   -11107.072            0    3505.8315    46.836133    19.941432    20.874397            0            0            0    19496.261    2330.0536    5022.0737    3165.3672    303.03995   -175.04131    414.64935 
    3500     229.1631   -11155.903   -10123.751   -11155.903            0    2544.3578    46.849107    19.997632    21.016557            0            0            0    19689.808    2092.3003      2556.87    2983.9031   -358.95796   -267.11055    407.45672 
    4000    225.90436   -11140.187   -10122.712   -11140.187            0    1939.7038    46.834016    20.193356    20.581184            0            0            0    19464.366    1092.2625    2016.1866    2710.6623   -137.27988    407.19106   -295.94172 
    4500    231.97874    -11139.86   -10095.027    -11139.86            0    2906.8571    46.876147     20.05431    20.850284            0            0            0    19600.701    2788.6772    2858.9918    3072.9023    655.19248    217.73868   -27.067235 
    5000    238.18782    -11130.01   -10057.212    -11130.01            0     1766.379    46.934653    19.947123    20.935908            0            0            0    19600.433    1872.1756    2125.6931    1301.2684     178.3703    359.89186    420.58127 
    5500    220.44015   -11127.955   -10135.092   -11127.955            0    3216.3793    46.725241    20.132943    20.741035            0            0            0    19511.436    4807.7364    1512.5923    3328.8091    182.55246    634.56391    382.64588 
    6000    236.07692   -11118.382    -10055.09   -11118.382            0    2819.1907    46.872091    20.045257    20.854627            0            0            0    19594.238    4514.3673    1813.1142    2130.0906    203.27294   -1234.8773    691.87635 
    6500    231.81105    -11151.94   -10107.863    -11151.94            0    3832.0828    46.579439    20.076745    20.873718            0            0            0    19520.339    3621.1866    4290.5362    3584.5255    31.720689    257.60704    410.43718 
    7000    228.56453   -11098.963   -10069.507   -11098.963            0    3270.1307    47.179062    20.032976    20.732235            0            0            0    19594.803    2400.0394    3967.6479    3442.7049    283.29593   -34.771967    194.22075 
    7500    227.97527   -11112.298   -10085.497   -11112.298            0    3040.2537    46.689204    20.067221    20.886681            0            0            0    19569.203    4499.1318    1337.7571     3283.872    127.70017    -402.3812    1159.9854 
    8000     228.4556   -11117.089   -10088.124   -11117.089            0    3818.0939    46.482796    20.046718     20.85501            0            0            0    19433.272    3840.8801    3978.3153    3635.0864    -285.1519    94.540882    934.90389 
    8500    228.76151   -11155.041   -10124.698   -11155.041            0    2514.3961    47.061756    20.083522    20.711127            0            0            0    19575.449    1480.1118    2665.3575     3397.719   -270.42632   -585.68257    498.64847 
    9000      236.891   -11108.499   -10041.541   -11108.499            0    3041.9943    46.704036    20.036008    20.948386            0            0            0    19602.713    3496.8717    2957.6007    2671.5105     440.4104    882.67343    128.63226 
    9500    231.22434   -11106.655   -10065.219   -11106.655            0    2551.2629    46.841813     19.99788    20.899139            0            0            0    19576.996    3270.9227    2229.2048    2153.6613    526.83419    782.70704    193.80635 
   10000     236.4264   -11087.753   -10022.888   -11087.753            0    2781.0937    46.733296    20.171704    20.746228            0            0            0    19557.266    3063.7905    2219.5884    3059.9021   -37.004109     646.7552    701.78237 
   10500    240.30088    -11097.57   -10015.254    -11097.57            0    1666.0532    47.231456      19.9894    20.967269            0            0            0    19795.796    1494.9521    1257.3432    2245.8643    265.64224    638.28866   -396.75225 
   11000    232.06282   -11114.906   -10069.694   -11114.906            0    3030.0064    46.600032    20.136185    20.853457            0            0            0    19567.776    3583.3726    2706.6863    2799.9602    286.93157    -697.0325   -449.43011 
   11500    227.43009   -11117.288   -10092.942   -11117.288            0    3091.5009    47.110945    20.003406    20.801546            0            0            0    19602.947    3505.4097    2484.3387    3284.7543   -180.02063   -692.83462    911.29406 
   12000    231.73752   -11087.757   -10044.011   -11087.757            0    3253.4834    46.629943    20.054061    20.888794            0            0            0    19533.523    3130.2528    3684.1384     2946.059   -88.979604   -522.30699   -367.97651 
   12500    229.11167   -11078.116   -10046.196   -11078.116            0    2561.2165    46.918293    20.086264     20.86461            0            0            0    19663.084    2533.9098    2600.1536    2549.5861    -103.8288    425.02834    20.104585 
   13000     236.2566   -11109.028   -10044.928   -11109.028            0    2592.0601    47.156391    20.022974    20.750004            0            0            0    19592.386    2225.5584    1929.5111    3621.1107   -588.82514   -220.72321    722.94323 
   13500    227.96843   -11139.724   -10112.953   -11139.724            0    4121.4421    46.490158    19.902984    21.011166            0            0            0    19441.482    5027.3479    3769.8438    3567.1346   -57.638925     365.7015   -515.61234 
   14000    226.26672   -11142.076   -10122.969   -11142.076            0    3648.1593    46.782378    20.096366    20.823632            0            0            0    19577.458    3725.5461     3552.201    3666.7307   -288.82079     812.6511    217.18218 
   14500    234.31522   -11173.135   -10117.778   -11173.135            0    3311.3113    46.926425    20.110337    20.744593            0            0            0    19576.802    3184.8832    3070.6541    3678.3966   -84.293161     418.7742    147.63711 
   15000    229.30111   -11101.727   -10068.954   -11101.727            0    3076.0816    46.644097    19.963451    20.997806            0            0            0    19552.678    3956.6372    3253.4289    2018.1786    90.459903   -514.13479   -594.60101 
   15500    236.57431   -11146.292    -10080.76   -11146.292            0    2487.4863    46.938274    20.018976    20.853595            0            0            0    19595.209    1586.1562    2941.2447    2935.0581   -275.95899    31.615368   -820.56476 
   16000    236.61762   -11138.188   -10072.461   -11138.188            0    3064.9597     46.93169    20.056788    20.701571            0            0            0    19486.367    3249.6561    2483.9878    3461.2351    304.76034   -147.78619   -74.841412 
   16500    232.76419   -11102.492   -10054.121   -11102.492            0    5343.8957    46.374358    19.977678    20.906138            0            0            0    19368.533    5708.7554    5363.4126    4959.5192   -180.84076   -234.44974    265.69796 
   17000    231.55695   -11116.456   -10073.523   -11116.456            0    3101.0418    46.850879    20.030265    20.931191            0            0            0    19642.573    2215.2472    4092.3783    2995.4998    133.09482   -316.56564   -346.71203 
   17500     232.2256   -11123.002   -10077.057   -11123.002            0     3549.615    46.989307    20.017944    20.726076            0            0            0    19495.555    4150.7245    3104.4655    3393.6549    67.626833    181.88507   -120.56176 
   18000    229.16433   -11158.133   -10125.976   -11158.133            0    3289.9207    46.768289    19.974901    20.902283            0            0            0    19526.744    2438.8184    4275.9669    3154.9768   -360.82852   -307.81337   -338.36298 
   18500    233.83745   -11167.825    -10114.62   -11167.825            0    1989.4564    46.860127    20.081498    20.987924            0            0            0    19750.089    2080.5003    1623.6443    2264.2247   -55.199835    275.75305   -413.31119 
   19000    224.59736   -11109.405   -10097.818   -11109.405            0    2401.4343    46.815726    20.077415    20.780498            0            0            0    19532.395    3127.3452     1810.932    2266.0259   -188.65433    414.93256    461.46226 
   19500    235.63026   -11150.055   -10088.775   -11150.055            0     2578.923    46.822271    20.069735      20.8204            0            0            0     19565.15    3472.0664    1718.7284    2545.9742    281.99552    58.946629   -183.15702 
   20000    225.30187   -11145.044   -10130.283   -11145.044            0    2728.0017    46.894166    20.000203    20.959659            0            0            0    19657.914    1969.4602    3597.9357    2616.6094   -8.9269764    172.54791   -21.748688 
   20500    227.47557   -11128.341    -10103.79   -11128.341            0    1786.8791    46.754087    20.185443    20.790244            0            0            0    19620.833    2165.4806    906.94773     2288.209   -701.89655   -543.98326   -396.46016 
   21000    228.14068   -11146.434   -10118.887   -11146.434            0    2851.0391    47.067741    19.979558    20.852556            0            0            0    19609.591    2452.3373    3096.1416    3004.6385   -171.98122   -580.29207   -340.14604 
   21500    223.78438   -11139.326   -10131.401   -11139.326            0    3113.9716    46.442535     20.01599    20.984793            0            0            0    19507.324    3169.1735    3512.4517    2660.2895   -183.53254    124.96897    666.03339 
   22000    234.97802    -11122.03   -10063.688    -11122.03            0    2511.5491    46.959964    20.060457    20.756959            0            0            0    19553.851    1037.6909     3365.949    3131.0075   -652.00732    144.00958    101.72538 
   22500    230.25855   -11110.543   -10073.457   -11110.543            0    2170.1698    46.877233    20.074617    20.842186            0            0            0    19613.382    1570.7919    2746.2557    2193.4617   -273.29504    852.43442   -228.08994 
   23000    219.23823   -11136.843   -10149.394   -11136.843            0    2379.4707    46.663486    20.082904    20.938422            0            0            0    19622.197    2701.8615    2725.8843    1710.6663    139.48068    388.90752    241.44698 
   23500     224.9263   -11104.254   -10091.185   -11104.254            0    3272.3581    46.834021    20.047011    20.810076            0            0            0    19538.208    2460.2849    3491.8275    3864.9617   -85.244683    662.01908     22.77738 
   24000    231.96803   -11084.865    -10040.08   -11084.865            0    3246.7729    47.116292    19.916087    20.839982            0            0            0    19555.659     4262.592    1762.6877    3715.0389    103.64921   -160.18493      11.1477 
   24500    229.17699   -11117.529   -10085.315   -11117.529            0    2649.1783    46.736792    19.962326    20.945112            0            0            0    19541.267    1886.8957    4352.3648    1708.2745     407.0873   -722.57063   -753.08159 
   25000    240.60776   -11135.263   -10051.564   -11135.263            0    2541.0466    46.642677    20.187944     20.76992            0            0            0    19557.366    3431.7426    2092.0687    2099.3286   -141.80231    52.370553    129.23629 
Loop time of 65.8144 on 32 procs for 25000 steps with 2268 atoms

Performance: 32.820 ns/day, 0.731 hours/ns, 379.856 timesteps/s
99.2% CPU use with 32 MPI tasks x 1 OpenMP threads

MPI task timing breakdown:
Section |  min time  |  avg time  |  max time  |%varavg| %total
---------------------------------------------------------------
Pair    | 11.726     | 13.702     | 16.045     |  35.4 | 20.82
Bond    | 0.029286   | 0.030689   | 0.032144   |   0.4 |  0.05
Kspace  | 27.978     | 30.369     | 32.222     |  23.4 | 46.14
Neigh   | 0.30459    | 0.31266    | 0.31951    |   0.7 |  0.48
Comm    | 7.2284     | 7.5683     | 7.9245     |   7.0 | 11.50
Output  | 0.31069    | 0.31081    | 0.31213    |   0.0 |  0.47
Modify  | 10.22      | 11.574     | 12.954     |  23.4 | 17.59
Other   |            | 1.948      |            |       |  2.96

Nlocal:        70.8750 ave          81 max          64 min
Histogram: 2 7 4 4 6 0 3 4 1 1
Nghost:        3148.19 ave        3203 max        3106 min
Histogram: 3 3 8 3 3 2 4 2 2 2
Neighs:        21931.8 ave       26923 max       18550 min
Histogram: 4 2 6 8 1 4 3 1 1 2

Total # of neighbors = 701816
Ave neighs/atom = 309.44268
Ave special neighs/atom = 2.0000000
Neighbor list builds = 395
Dangerous builds = 0

unfix 		1
unfix 		2

# create group to melt
variable	meltPt equal (xlo)+(lx)/2.0
region		meltReg plane ${meltPt} 0 0 -1 0 0 units box
region		meltReg plane 23.3299990000001 0 0 -1 0 0 units box
group		tstatGrp region meltReg
1137 atoms in group tstatGrp

# melt half the box in NPT
fix             1 tstatGrp nph x ${pressure} ${pressure} ${pressureDamp}
fix             1 tstatGrp nph x 3000 ${pressure} ${pressureDamp}
fix             1 tstatGrp nph x 3000 3000 ${pressureDamp}
fix             1 tstatGrp nph x 3000 3000 1000
fix		2 tstatGrp temp/csvr ${temperature} ${melttemp} ${tempDamp} ${seed}
fix		2 tstatGrp temp/csvr 230 ${melttemp} ${tempDamp} ${seed}
fix		2 tstatGrp temp/csvr 230 450 ${tempDamp} ${seed}
fix		2 tstatGrp temp/csvr 230 450 100 ${seed}
fix		2 tstatGrp temp/csvr 230 450 100 745823

run             25000
PPPM initialization ...
  extracting TIP4P info from pair style
  using 12-bit tables for long-range coulomb (../kspace.cpp:340)
  G vector (1/distance) = 0.37296733
  grid = 48 27 27
  stencil order = 5
  estimated absolute RMS force accuracy = 0.0032931077
  estimated relative force accuracy = 9.9170961e-06
  using double precision FFTW3
  3d grid and FFT values/proc = 6292 1344
Last active /omp style is kspace_style pppm/tip4p/omp
Per MPI rank memory allocation (min/avg/max) = 9.542 | 9.558 | 9.574 Mbytes
Step Temp PotEng TotEng E_pair E_mol Press Lx Ly Lz Xy Xz Yz Volume Pxx Pyy Pzz Pxy Pxz Pyz 
   25000    240.60776   -11135.261   -10051.563   -11135.261            0    2497.1722    46.642677    20.187944     20.76992            0            0            0    19557.366    3563.3162    1939.9757    1988.2246   -141.90791    53.365411    130.77254 
   25500    228.14269   -11090.712   -10063.156   -11090.712            0    3618.4562    46.629782    20.187944     20.76992            0            0            0    19551.959    3373.9262    3570.8608    3910.5818   -180.94674    48.608587    185.96746 
   26000    240.86837   -11127.528   -10042.656   -11127.528            0    3462.3355    46.636064    20.187944     20.76992            0            0            0    19554.593    4626.5328    2332.3298    3428.1437    242.88625   -412.49724   -267.78964 
   26500    234.96276   -11099.938   -10041.664   -11099.938            0    2965.9983    46.681215    20.187944     20.76992            0            0            0    19573.525    2835.5191    3106.9119     2955.564    71.504357    153.67612    296.14162 
   27000    242.52711    -11088.65    -9996.307    -11088.65            0     3259.726    46.649895    20.187944     20.76992            0            0            0    19560.393     3725.936    2446.3096    3606.9324   -204.12346   -58.963822   -277.23761 
   27500    245.71239   -11069.129   -9962.4398   -11069.129            0    2878.3497    46.676976    20.187944     20.76992            0            0            0    19571.748     2716.488     2331.839    3586.7221    111.74448   -1001.0386    191.76454 
   28000    236.24123   -11086.911   -10022.879   -11086.911            0    2476.2056    46.697021    20.187944     20.76992            0            0            0    19580.153    1122.4868    3396.0604    2910.0697   -17.370305   -342.79744    582.23263 
   28500    238.64244   -11076.083   -10001.236   -11076.083            0    3010.7739    46.687426    20.187944     20.76992            0            0            0     19576.13    2159.3908    3668.2873    3204.6436   -13.876211      175.335    797.66166 
   29000    249.41229   -11068.305   -9944.9511   -11068.305            0    3024.1946    46.686351    20.187944     20.76992            0            0            0    19575.679    2333.9582    2744.4756    3994.1501   -150.79684   -247.76731    316.47271 
   29500    248.75431   -11027.021   -9906.6309   -11027.021            0    4243.1709    46.625784    20.187944     20.76992            0            0            0    19550.283    5576.3803    3064.9821    4088.1503   -350.32644   -328.67023   -38.506498 
   30000    252.24452    -11011.92   -9875.8096    -11011.92            0    3723.5214    46.630963    20.187944     20.76992            0            0            0    19552.455     4655.302    2914.2456    3601.0167    83.403527   -1268.9285   -124.06819 
   30500    255.40246   -10981.158    -9830.824   -10981.158            0    3865.0344     46.64071    20.187944     20.76992            0            0            0    19556.541    3017.9478    4374.2514    4202.9041   -386.84121    -99.06539    168.01644 
   31000    253.18851   -11037.958   -9897.5962   -11037.958            0    1235.1642    46.798532    20.187944     20.76992            0            0            0    19622.716   -1812.0573    2637.4224    2880.1276    -161.5089   -265.45031    994.64504 
   31500    269.39969   -11008.027   -9794.6502   -11008.027            0    2939.3797    46.671588    20.187944     20.76992            0            0            0    19569.489    2381.7645    2718.5761    3717.7986   -75.198337     315.6054    440.58088 
   32000    261.38003   -10963.157   -9785.9005   -10963.157            0    4011.8769    46.627036    20.187944     20.76992            0            0            0    19550.808    4688.5505    3044.2877    4302.7927    -145.4337    138.37614    367.04635 
   32500    255.76171   -10974.145    -9822.193   -10974.145            0    3791.7808    46.655369    20.187944     20.76992            0            0            0    19562.688    3436.1016    3986.2639    3952.9769   -461.69345    182.91427    273.08524 
   33000    262.75363   -10929.734   -9746.2908   -10929.734            0    3262.4679    46.678673    20.187944     20.76992            0            0            0    19572.459    2929.5546    3118.1431     3739.706    100.75815    492.86157   -81.063028 
   33500     264.6605    -10942.45   -9750.4185    -10942.45            0    2333.2306    46.717189    20.187944     20.76992            0            0            0    19588.609    967.74253    3653.5926    2378.3566    814.51577    72.309531   -27.124486 
   34000    264.67896   -10885.216   -9693.1006   -10885.216            0    2395.4301    46.740832    20.187944     20.76992            0            0            0    19598.523    1022.1719    2881.3036    3282.8148    15.539004   -977.00053   -577.14832 
   34500    278.85664    -10922.29   -9666.3187    -10922.29            0    4452.7882    46.603125    20.187944     20.76992            0            0            0    19540.782    5742.0366    3661.4027    3954.9253   -432.65705   -253.12012   -429.33121 
   35000    272.86348     -10892.6   -9663.6216     -10892.6            0    3810.2168    46.678862    20.187944     20.76992            0            0            0    19572.539    3377.5218    4232.3251    3820.8034    127.28491    73.111864   -284.87904 
   35500    283.57269    -10823.51   -9546.2976    -10823.51            0    3187.9056    46.727781    20.187944     20.76992            0            0            0     19593.05    898.79057    4865.1767    3799.7494   -141.67527   -183.21482    597.55275 
   36000    281.24673   -10823.593   -9556.8564   -10823.593            0    3457.2014    46.682485    20.187944     20.76992            0            0            0    19574.058    2687.1724    4065.9378    3618.4942   -636.29409   -606.15063   -5.7280353 
   36500     281.1481   -10818.525   -9552.2324   -10818.525            0    4093.5408    46.655218    20.187944     20.76992            0            0            0    19562.625    4039.4527    4197.5123    4043.6574   -40.761125   -639.19845   -218.44098 
   37000    285.19798   -10804.402   -9519.8691   -10804.402            0    3673.9535    46.708529    20.187944     20.76992            0            0            0    19584.978    2484.0368    4479.8007     4058.023    -65.56236   -555.16657    1017.5513 
   37500    285.81734   -10833.471   -9546.1488   -10833.471            0    4432.7178    46.673102    20.187944     20.76992            0            0            0    19570.123    4794.9497    3677.7195    4825.4842   -112.56404   -683.88906    1301.5406 
   38000    288.60218   -10786.722   -9486.8569   -10786.722            0    6156.3068    46.599296    20.187944     20.76992            0            0            0    19539.176    7459.7267    5176.9016    5832.2921    12.743075   -194.23434    1192.4247 
   38500    285.64428   -10816.483   -9529.9399   -10816.483            0    4638.3609    46.645057    20.187944     20.76992            0            0            0    19558.364    4861.6731    4734.2281    4319.1814    250.07112   -687.07038   -211.62794 
   39000    283.72362   -10754.494    -9476.602   -10754.494            0    3603.6577    46.707637    20.187944     20.76992            0            0            0    19584.604    2624.0632    4792.2501    3394.6597     323.5984   -510.45894     487.8673 
   39500    302.82328   -10747.658   -9383.7408   -10747.658            0    4337.7856    46.711241    20.187944     20.76992            0            0            0    19586.115    3189.1136    4729.2018    5095.0416   0.33795508   -525.15098   -1047.6445 
   40000    291.80154   -10677.496   -9363.2212   -10677.496            0     4401.704    46.698908    20.187944     20.76992            0            0            0    19580.944    4402.5541    4636.1809     4166.377   -363.81632    -94.13843    864.16746 
   40500    292.14079   -10701.357   -9385.5534   -10701.357            0    4920.1513    46.681014    20.187944     20.76992            0            0            0    19573.441     3878.407    5500.2346    5381.8123    153.06532   -498.19032    216.01984 
   41000    297.29441   -10668.179   -9329.1637   -10668.179            0     4684.087    46.611436    20.187944     20.76992            0            0            0    19544.267    6107.6543    4068.5413    3876.0655   -573.86795    261.42324   -236.92508 
   41500    309.49968   -10670.813    -9276.825   -10670.813            0    4793.5244    46.678461    20.187944     20.76992            0            0            0     19572.37    3643.2812    5470.4205    5266.8715   -718.09742   -200.19277    411.97635 
   42000    302.72925   -10689.983   -9326.4893   -10689.983            0    1737.8025    46.773473    20.187944     20.76992            0            0            0    19612.209   -2207.1155    4527.6127    2892.9103   -115.46596   -23.599877    433.52008 
   42500     311.5827   -10639.821   -9236.4516   -10639.821            0    2844.5174     46.75365    20.187944     20.76992            0            0            0    19603.897    928.63318    4055.4385    3549.4805   -312.67242   -731.65741    311.20571 
   43000      308.775   -10668.482   -9277.7584   -10668.482            0    3540.3225    46.720512    20.187944     20.76992            0            0            0    19590.002    3098.5107    4061.4342    3461.0226    -13.12756   -781.42697   -164.31308 
   43500     309.2476   -10587.047   -9194.1947   -10587.047            0    3625.8693    46.767285    20.187944     20.76992            0            0            0    19609.615    1419.2031    5045.7183    4412.6865   -471.31873    -96.06876    372.62193 
   44000    311.14184   -10555.084   -9153.6994   -10555.084            0    4045.4616    46.706675    20.187944     20.76992            0            0            0    19584.201    2724.4014    4596.9674    4815.0159   -166.29784   -303.00052    805.50711 
   44500    309.08187   -10503.354   -9111.2476   -10503.354            0    4756.7271    46.688233    20.187944     20.76992            0            0            0    19576.468    4237.3489    5740.2834    4292.5491   -1193.2293    274.43522   -134.51437 
   45000    321.45696   -10473.988   -9026.1449   -10473.988            0    3644.3647    46.738995    20.187944     20.76992            0            0            0    19597.752    1481.6998    5087.7566    4363.6377    114.16624   -1214.0671    381.37819 
   45500    315.71322   -10458.083   -9036.1096   -10458.083            0    4168.3598    46.720824    20.187944     20.76992            0            0            0    19590.133    4171.5056    3455.1647     4878.409   -523.55702    -46.63673    89.633563 
   46000    324.88485   -10370.021   -8906.7382   -10370.021            0    5525.7075    46.675092    20.187944     20.76992            0            0            0    19570.958    5751.0486     5874.087    4951.9868    535.52957   -651.63559    202.52811 
   46500     327.1468   -10329.056   -8855.5854   -10329.056            0    3246.9944    46.776581    20.187944     20.76992            0            0            0    19613.512    836.49292    5330.9889    3573.5014   -118.94503   -24.212034    1152.5939 
   47000    323.41835   -10215.868   -8759.1908   -10215.868            0    1928.0516    46.858324    20.187944     20.76992            0            0            0    19647.788   -3098.5289    5848.8897    3033.7942    173.58125    208.00118   -244.84808 
   47500     327.6078   -10154.251    -8678.704   -10154.251            0    3750.3656    46.781152    20.187944     20.76992            0            0            0    19615.429    1340.1075    5851.4839    4059.5053    148.56513   -114.93549    409.38233 
   48000    339.11872   -10043.407   -8516.0151   -10043.407            0    4799.3881    46.739235    20.187944     20.76992            0            0            0    19597.853    4210.4028     4780.138    5407.6234    792.35375   -567.57278    319.06829 
   48500    328.73575   -10048.888   -8568.2606   -10048.888            0    4994.5961    46.703219    20.187944     20.76992            0            0            0    19582.752     4393.331    5558.9119    5031.5455   -588.59134    600.17429    -13.81641 
   49000    328.31814   -9942.9587   -8464.2125   -9942.9587            0    5676.6508    46.677339    20.187944     20.76992            0            0            0      19571.9    5349.1907    5351.2486    6329.5131   -582.35976    44.481816    776.88597 
   49500    327.19565   -9945.6231   -8471.9326   -9945.6231            0    4137.9021    46.778398    20.187944     20.76992            0            0            0    19614.274    1345.3055    5951.7792    5116.6215   -1182.7978   -558.94651    775.77016 
   50000    341.33758   -9954.3443   -8416.9584   -9954.3443            0    3213.4366    46.821758    20.187944     20.76992            0            0            0    19632.455     157.7202    5341.2505    4141.3392   -133.82432    82.288804    409.43436 
Loop time of 68.3071 on 32 procs for 25000 steps with 2268 atoms

Performance: 31.622 ns/day, 0.759 hours/ns, 365.994 timesteps/s
99.1% CPU use with 32 MPI tasks x 1 OpenMP threads

MPI task timing breakdown:
Section |  min time  |  avg time  |  max time  |%varavg| %total
---------------------------------------------------------------
Pair    | 11.421     | 13.816     | 17.399     |  37.4 | 20.23
Bond    | 0.028246   | 0.030651   | 0.032805   |   0.5 |  0.04
Kspace  | 28.661     | 32.151     | 34.535     |  24.3 | 47.07
Neigh   | 0.69414    | 0.70268    | 0.71253    |   0.6 |  1.03
Comm    | 7.4233     | 7.8595     | 8.2465     |   8.0 | 11.51
Output  | 0.16802    | 0.16812    | 0.16928    |   0.1 |  0.25
Modify  | 10.304     | 11.667     | 13.06      |  23.5 | 17.08
Other   |            | 1.912      |            |       |  2.80

Nlocal:        70.8750 ave          79 max          65 min
Histogram: 2 4 5 7 2 5 1 3 1 2
Nghost:        3147.66 ave        3221 max        3078 min
Histogram: 2 1 1 7 7 7 1 3 2 1
Neighs:        21747.3 ave       26767 max       18522 min
Histogram: 6 1 5 8 1 2 5 2 1 1

Total # of neighbors = 695915
Ave neighs/atom = 306.84083
Ave special neighs/atom = 2.0000000
Neighbor list builds = 862
Dangerous builds = 0
write_restart   restart.melted
System init for write_restart ...
PPPM initialization ...
  extracting TIP4P info from pair style
  using 12-bit tables for long-range coulomb (../kspace.cpp:340)
  G vector (1/distance) = 0.37282893
  grid = 48 27 27
  stencil order = 5
  estimated absolute RMS force accuracy = 0.0033114796
  estimated relative force accuracy = 9.9724224e-06
  using double precision FFTW3
  3d grid and FFT values/proc = 6292 1344
Last active /omp style is kspace_style pppm/tip4p/omp
write_data   	water.data.melted
System init for write_data ...
PPPM initialization ...
  extracting TIP4P info from pair style
  using 12-bit tables for long-range coulomb (../kspace.cpp:340)
  G vector (1/distance) = 0.37282893
  grid = 48 27 27
  stencil order = 5
  estimated absolute RMS force accuracy = 0.0033114796
  estimated relative force accuracy = 9.9724224e-06
  using double precision FFTW3
  3d grid and FFT values/proc = 6292 1344
Last active /omp style is kspace_style pppm/tip4p/omp
WARNING: Not all mixed pair coeffs generated from mixing. Use write_data with 'pair ij' option to store all pair coeffs. (../write_data.cpp:312)

unfix 		2
fix		2 tstatGrp temp/csvr ${melttemp} ${melttemp} ${tempDamp} ${seed}
fix		2 tstatGrp temp/csvr 450 ${melttemp} ${tempDamp} ${seed}
fix		2 tstatGrp temp/csvr 450 450 ${tempDamp} ${seed}
fix		2 tstatGrp temp/csvr 450 450 100 ${seed}
fix		2 tstatGrp temp/csvr 450 450 100 745823

run             100000
PPPM initialization ...
  extracting TIP4P info from pair style
  using 12-bit tables for long-range coulomb (../kspace.cpp:340)
  G vector (1/distance) = 0.37282893
  grid = 48 27 27
  stencil order = 5
  estimated absolute RMS force accuracy = 0.0033114796
  estimated relative force accuracy = 9.9724224e-06
  using double precision FFTW3
  3d grid and FFT values/proc = 6292 1344
Last active /omp style is kspace_style pppm/tip4p/omp
Per MPI rank memory allocation (min/avg/max) = 9.542 | 9.558 | 9.574 Mbytes
Step Temp PotEng TotEng E_pair E_mol Press Lx Ly Lz Xy Xz Yz Volume Pxx Pyy Pzz Pxy Pxz Pyz 
   50000    341.33758   -9954.3438    -8416.958   -9954.3438            0    5436.7606    46.821758    20.187944     20.76992            0            0            0    19632.455    5621.3805    5623.0273    5065.8738   -402.84022     418.2001    343.08291 
   50500    345.46438   -9901.7414   -8345.7685   -9901.7414            0    4017.1797    46.931607    20.187944     20.76992            0            0            0    19678.515    2414.7925    5023.8767      4612.87   -318.61719    155.22553   -719.12854 
   51000    341.53912   -9871.6441   -8333.3506   -9871.6441            0    3210.6036    46.976909    20.187944     20.76992            0            0            0     19697.51   -153.39314    5364.7824    4420.4214    -322.9281   -221.89181    843.89408 
   51500    341.58374   -9880.7376    -8342.243   -9880.7376            0    3768.0963    46.933832    20.187944     20.76992            0            0            0    19679.448    1316.3331    6047.4454    3940.5104   -365.72384   -785.73621   -360.55035 
   52000    346.77675   -9920.6006   -8358.7167   -9920.6006            0    3325.8182    47.014818    20.187944     20.76992            0            0            0    19713.406   -423.50568    5156.7781    5244.1823   -498.38187    286.62102    802.06559 
   52500    344.48778   -9842.3688   -8290.7945   -9842.3688            0    6155.0838    46.847376    20.187944     20.76992            0            0            0    19643.197    5182.4861    6673.5404    6609.2251    352.94555    -453.8497    146.72212 
   53000    334.06853   -9943.4309   -8438.7849   -9943.4309            0    5595.0308    46.843013    20.187944     20.76992            0            0            0    19641.368    4901.1091    6183.1147    5700.8686    407.51488    425.51617   -379.01488 
   53500    332.34407   -9965.8673   -8468.9883   -9965.8673            0    4992.3204    46.853548    20.187944     20.76992            0            0            0    19645.785    4319.3785    5688.9205    4968.6622   -186.54106   -206.88901    408.86662 
   54000    332.56632   -9877.2241   -8379.3441   -9877.2241            0    3319.1575    46.970772    20.187944     20.76992            0            0            0    19694.937    152.33435    5667.0247    4138.1136   -99.941919   -387.26744   -246.19261 
   54500    344.46536   -9919.7997   -8368.3263   -9919.7997            0    3864.8476    46.919201    20.187944     20.76992            0            0            0    19673.313    1662.1913    5095.1493    4837.2022    441.76896   -719.84487    112.60328 
   55000    350.51519   -9910.6043   -8331.8825   -9910.6043            0    4706.9555    46.885097    20.187944     20.76992            0            0            0    19659.013    3548.6857    6026.2601    4545.9207   -973.41721    17.147827    112.01291 
   55500    354.89714    -9881.666   -8283.2079    -9881.666            0    5097.0602    46.909807    20.187944     20.76992            0            0            0    19669.374    2267.1512    7248.8515     5775.178   -307.65618    344.83329   -731.70732 
   56000    341.36258   -9915.7951   -8378.2966   -9915.7951            0    4826.5953    46.872826    20.187944     20.76992            0            0            0    19653.868     4630.355    4969.2839    4880.1471     358.9829   -519.87834   -485.75635 
   56500    352.20021   -9893.9657   -8307.6545   -9893.9657            0    3654.1316    46.959116    20.187944     20.76992            0            0            0     19690.05    416.51442    6049.0748    4496.8056   -883.10617   -728.87382   -341.69618 
   57000    336.63091   -9832.8958   -8316.7088   -9832.8958            0    4668.1331    46.879796    20.187944     20.76992            0            0            0    19656.791    2452.8737    5172.1219    6379.4037    344.54902    50.068607   -23.504084 
   57500    326.02337   -9867.2654   -8398.8548   -9867.2654            0     5790.153    46.854883    20.187944     20.76992            0            0            0    19646.344    6786.7219    4397.5462     6186.191   -152.04389   -67.597059    780.54986 
   58000    331.96545   -9805.8319   -8310.6582   -9805.8319            0    5617.3607    46.854941    20.187944     20.76992            0            0            0    19646.369    5033.2379    5135.7958    6683.0483    240.16816    78.367819    664.48265 
   58500    340.36234   -9818.9305   -8285.9371   -9818.9305            0    3932.9435    46.911369    20.187944     20.76992            0            0            0    19670.029     3302.239    3843.2705    4653.3211    523.37097   -703.50449    -37.68247 
   59000    341.51944   -9794.6399    -8256.435   -9794.6399            0    3215.6687    47.006738    20.187944     20.76992            0            0            0    19710.018    440.36191    5131.0195    4075.6248    846.32564   -780.12638   -320.48474 
   59500    340.48185   -9811.5658   -8278.0342   -9811.5658            0    5491.7961    46.854905    20.187944     20.76992            0            0            0    19646.354    5079.7942    5312.7182     6082.876    477.99611   -328.57847   -339.82535 
   60000    337.49503   -9852.3628   -8332.2838   -9852.3628            0    3950.9944    46.930708    20.187944     20.76992            0            0            0    19678.138     2083.471    5383.8602    4385.6521   -47.691551   -309.82233    557.11794 
   60500    357.89783   -9817.5062   -8205.5329   -9817.5062            0    3954.0973    46.954627    20.187944     20.76992            0            0            0    19688.167    544.61514    6299.7839     5017.893    756.33053   -248.73649   -43.272922 
   61000     350.8352   -9836.2724   -8256.1093   -9836.2724            0    5003.1658    46.875908    20.187944     20.76992            0            0            0     19655.16    4429.5294     4465.598    6114.3701    811.45201   -840.06273    216.71137 
   61500    335.38702   -9799.7204    -8289.136   -9799.7204            0    5699.2063    46.835394    20.187944     20.76992            0            0            0    19638.173    5321.0598    5652.8576    6123.7014   -203.61431   -433.99291   -423.81917 
   62000    344.39258   -9849.6188   -8298.4732   -9849.6188            0    4274.3338    46.966833    20.187944     20.76992            0            0            0    19693.285    1589.0105    6473.6094    4760.3814    21.078803   -1034.3234    189.64685 
   62500    327.61553    -9844.935   -8369.3533    -9844.935            0    5125.0782    46.907703    20.187944     20.76992            0            0            0    19668.492    3708.4597    5864.2736    5802.5013    142.47921   -896.95114   -16.949876 
   63000    347.41049   -9874.2774   -8309.5392   -9874.2774            0    6269.3411     46.84637    20.187944     20.76992            0            0            0    19642.775    6169.0077    6689.7169    5949.2986   -25.371008    390.87487   -159.05538 
   63500    333.93144   -9865.1169   -8361.0883   -9865.1169            0    4645.9164    46.864704    20.187944     20.76992            0            0            0    19650.462    3305.0409    5637.1837    4995.5247    986.75545   -745.93413    264.20402 
   64000    343.48566   -9904.1557   -8357.0949   -9904.1557            0    4357.3726    46.893644    20.187944     20.76992            0            0            0    19662.597    3173.0937     4468.213    5430.8111    -821.9441   -140.65915    289.32278 
   64500    341.63516    -9848.963   -8310.2368    -9848.963            0    5285.7256    46.893263    20.187944     20.76992            0            0            0    19662.438    3987.1651    4998.6961    6871.3156      216.856   -1334.5699    58.341793 
   65000     346.2573   -9871.9588   -8312.4145   -9871.9588            0    4992.5163    46.883555    20.187944     20.76992            0            0            0    19658.367    3537.7614    5587.8428    5851.9447    30.664261     102.9124   -145.84662 
   65500    340.05622   -9939.4776    -8407.863   -9939.4776            0    5051.2755    46.906277    20.187944     20.76992            0            0            0    19667.894    3510.9953    6682.3651     4960.466    -192.2858   -60.383602    326.29414 
   66000    345.07163   -9955.2699   -8401.0659   -9955.2699            0    5795.0477    46.895324    20.187944     20.76992            0            0            0    19663.302    4771.0351    6519.2622    6094.8458    426.56168   -246.21307    552.00175 
   66500    340.42401   -9849.2613   -8315.9902   -9849.2613            0    6237.5183    46.851508    20.187944     20.76992            0            0            0    19644.929    6284.4936    6419.4572    6008.6042   -345.71014    -489.5697    907.25442 
   67000    332.89018   -9884.9346   -8385.5959   -9884.9346            0    4231.0541    46.939149    20.187944     20.76992            0            0            0    19681.678    1230.2008    6617.3695     4845.592    746.14357   -848.24447    567.79899 
   67500    348.23775   -9874.4037   -8305.9395   -9874.4037            0    3604.9446    46.946494    20.187944     20.76992            0            0            0    19684.757     878.3403    5005.2789    4931.2146    316.08999    282.37458    375.08683 
   68000    338.25235    -9869.469   -8345.9791    -9869.469            0    3406.7509    46.941164    20.187944     20.76992            0            0            0    19682.522    423.36358    4973.0654    4823.8236   -1089.7497   -371.47124    223.35262 
   68500    349.95356   -9851.1783   -8274.9861   -9851.1783            0    5233.8284    46.867492    20.187944     20.76992            0            0            0    19651.632    4164.1432    6905.4922    4631.8497   -133.38287     -239.317     396.9318 
   69000    332.96297   -9841.1132   -8341.4466   -9841.1132            0    5439.0733    46.844083    20.187944     20.76992            0            0            0    19641.816    5318.5807    6084.0338    4914.6055   -188.29763   -112.33787   -147.50733 
   69500    341.13085   -9888.6582   -8352.2034   -9888.6582            0    4151.8891     46.88584    20.187944     20.76992            0            0            0    19659.325    2700.9628    5458.2811    4296.4233   -507.85402    -358.9484    -306.6136 
   70000    335.16529   -9840.2875   -8330.7017   -9840.2875            0    3307.3379    46.978805    20.187944     20.76992            0            0            0    19698.306   -333.25861    5366.7618    4888.5105   -601.67622    -322.2461   -108.90036 
   70500    335.02541   -9835.7223   -8326.7665   -9835.7223            0    3509.6769    46.981217    20.187944     20.76992            0            0            0    19699.317   -4.7851408    5709.9643    4823.8515   -301.27274   -64.196326   -63.389565 
   71000    348.72158   -9851.2699   -8280.6265   -9851.2699            0    6138.8029    46.850343    20.187944     20.76992            0            0            0    19644.441    6285.3904    6306.4344    5824.5838   -523.92554   -1237.2678    492.92458 
   71500    344.29434   -9871.0829   -8320.3798   -9871.0829            0    4694.2441    46.916657    20.187944     20.76992            0            0            0    19672.246    2177.0914    6322.2313    5583.4097   -619.11698    -889.6964    817.50686 
   72000    346.38462   -9843.8624   -8283.7447   -9843.8624            0    5119.7507    46.888662    20.187944     20.76992            0            0            0    19660.508    4667.8506    5647.6011    5043.8005    513.53227   -1022.2821    750.41919 
   72500    344.87546   -9859.8784   -8306.5579   -9859.8784            0    4538.1563    46.896428    20.187944     20.76992            0            0            0    19663.764    5038.9921    4434.0599    4141.4169    516.79658   -55.849995    671.14889 
   73000    345.09799   -9793.9099   -8239.5872   -9793.9099            0    4667.4547    46.896156    20.187944     20.76992            0            0            0     19663.65    2649.8956    5665.8199    5686.6487   -318.25608   -359.49036    151.89894 
   73500    334.96995   -9813.6762   -8304.9702   -9813.6762            0    4535.1573    46.869915    20.187944     20.76992            0            0            0    19652.648    3328.1598    5011.4355    5265.8767     61.75503   -779.50408    687.04391 
   74000    340.26696   -9796.0049   -8263.4411   -9796.0049            0    4856.2453    46.914357    20.187944     20.76992            0            0            0    19671.282    2632.8472    6705.5253    5230.3635    81.702539    40.090998    675.92104 
   74500     342.8903   -9932.3768   -8387.9975   -9932.3768            0    4329.2324     46.93775    20.187944     20.76992            0            0            0    19681.091    1839.2453    5865.3936    5283.0581    109.44796   -761.40275   -14.068553 
   75000    342.92062   -9868.2157   -8323.6999   -9868.2157            0    5063.9588    46.871522    20.187944     20.76992            0            0            0    19653.321    3398.0874    5497.1578    6296.6311    719.41627   -835.42176    794.94871 
   75500    333.16435   -9831.8987   -8331.3251   -9831.8987            0    5379.3413    46.894805    20.187944     20.76992            0            0            0    19663.084    3898.7773    6276.2967      5962.95   -82.510544   -913.56739   -157.59606 
   76000    341.38555   -9906.0323   -8368.4304   -9906.0323            0    4434.6869    46.953887    20.187944     20.76992            0            0            0    19687.857    624.84173    7345.1056    5334.1134   -277.75697    272.51527   -387.87237 
   76500    354.59309   -9824.2949   -8227.2062   -9824.2949            0    3340.9653    46.985415    20.187944     20.76992            0            0            0    19701.077    -298.8303     5703.417    4618.3092    21.120972   -998.51612      121.934 
   77000    342.65949   -9820.1612   -8276.8215   -9820.1612            0    6173.5641    46.819015    20.187944     20.76992            0            0            0    19631.305    7283.1152    5444.0349    5793.5422   -133.37403   -76.350117    70.259808 
   77500    354.50878   -9824.7086   -8227.9997   -9824.7086            0    7039.8437    46.841131    20.187944     20.76992            0            0            0    19640.578    7126.8833    7287.2508    6705.3969    461.98904    905.10193    84.621423 
   78000    333.59615   -9806.3907   -8303.8723   -9806.3907            0    5772.7833    46.820807    20.187944     20.76992            0            0            0    19632.056    5567.2771    4829.7948    6921.2779    239.09455   -280.80046    35.016988 
   78500    330.30446   -9899.0996    -8411.407   -9899.0996            0    3981.6833    46.918983    20.187944     20.76992            0            0            0    19673.222    3082.4553     4892.854    3969.7406    401.55069    169.15554   -235.36881 
   79000    332.52962   -9840.1563   -8342.4416   -9840.1563            0     4581.144    46.927903    20.187944     20.76992            0            0            0    19676.962    1819.4482    6140.7823    5783.2014     42.67744    -472.9456    729.21907 
   79500     347.7104   -9900.6535   -8334.5645   -9900.6535            0    4801.3403     46.92407    20.187944     20.76992            0            0            0    19675.355    3269.7477    6075.1186    5059.1546    129.04615   -663.82063   -736.64433 
   80000    356.23511   -9858.5534    -8254.069   -9858.5534            0    5336.9269    46.887948    20.187944     20.76992            0            0            0    19660.209     2953.848    8363.6064    4693.3262   -60.489657   -139.15654     68.32345 
   80500     342.4114   -9792.6009   -8250.3785   -9792.6009            0    3945.6384    46.939924    20.187944     20.76992            0            0            0    19682.002    2578.3052    4708.7547    4549.8553   -655.04007    398.89263    61.226434 
   81000    346.26403   -9840.8429   -8281.2683   -9840.8429            0    4653.5655    46.906735    20.187944     20.76992            0            0            0    19668.086    3041.7912    6502.5515    4416.3539   -958.23537    284.06837    168.16197 
   81500    350.75468   -9861.7148   -8281.9143   -9861.7148            0    3944.8936    46.912701    20.187944     20.76992            0            0            0    19670.588    1867.1455    6650.2922    3317.2432   -212.83847   -24.226724   -236.90099 
   82000    326.66987   -9807.8932   -8336.5708   -9807.8932            0     4150.655    46.946131    20.187944     20.76992            0            0            0    19684.605    2269.1799    5129.2684    5053.5165   -881.42618   -404.04187    583.61624 
   82500     351.4807   -9825.9402   -8242.8697   -9825.9402            0    4308.9589    46.950824    20.187944     20.76992            0            0            0    19686.573    2224.0853    5556.1629    5146.6285    580.73258   -16.126833    146.77174 
   83000    330.99343   -9833.5327    -8342.737   -9833.5327            0    6518.2822    46.836001    20.187944     20.76992            0            0            0    19638.427     6296.263    6735.5656    6523.0179   -370.71048   -281.66285   -131.06476 
   83500     331.8313   -9915.3073   -8420.7378   -9915.3073            0     6749.758    46.803324    20.187944     20.76992            0            0            0    19624.726     7135.329    6758.7887    6355.1563   -647.20623    -970.9564    552.82919 
   84000    340.66215   -9830.8031   -8296.4594   -9830.8031            0    4999.8563    46.908499    20.187944     20.76992            0            0            0    19668.826    2614.8568    7127.6869    5257.0251    286.05342    -1190.749    293.13641 
   84500    341.76452    -9886.042   -8346.7333    -9886.042            0    3570.4944    46.978847    20.187944     20.76992            0            0            0    19698.323    40.114455    5884.2994    4787.0693    -451.3093   -1397.8731    560.49178 
   85000    352.74691   -9871.7824   -8283.0089   -9871.7824            0    4582.1052    46.905966    20.187944     20.76992            0            0            0    19667.764    3364.7453    5305.9672     5075.603    -774.8095   -780.99317   -346.39714 
   85500    340.32558   -9926.8433   -8394.0156   -9926.8433            0    5784.8804     46.81945    20.187944     20.76992            0            0            0    19631.487    5438.7455    5777.4334    6138.4624   -303.34763   -114.76397   -673.07722 
   86000    333.50434   -9859.7569    -8357.652   -9859.7569            0    5227.0154     46.90335    20.187944     20.76992            0            0            0    19666.667    2456.7002    7037.4812    6186.8648    102.51339    51.595078    511.04928 
   86500    344.28157    -9911.549   -8360.9035    -9911.549            0    2931.5961    46.982256    20.187944     20.76992            0            0            0    19699.752   -612.64289    4621.3268    4786.1044   -513.08478    135.83386    392.76741 
   87000    343.46728   -9829.4712   -8282.4932   -9829.4712            0    4397.1549    46.909033    20.187944     20.76992            0            0            0     19669.05    1897.5377    6682.1141    4611.8129    140.09798   -308.55936   -272.61841 
   87500    350.40699   -9874.8269   -8296.5924   -9874.8269            0    4408.7898    46.920569    20.187944     20.76992            0            0            0    19673.887     3021.864    5936.1571    4268.3484   -187.58405   -519.94545   -319.17523 
   88000    341.90884   -9885.7249   -8345.7661   -9885.7249            0    5846.6521    46.863642    20.187944     20.76992            0            0            0    19650.017    5358.3675     5526.574    6655.0149   -13.085885   -257.72251    408.81661 
   88500    342.48861   -9890.5272   -8347.9572   -9890.5272            0    6014.7534    46.820637    20.187944     20.76992            0            0            0    19631.985    6535.0964    5865.8276    5643.3362   -268.27784    -104.6475   -179.05057 
   89000     344.1599   -9930.8471   -8380.7495   -9930.8471            0     4150.019    46.890102    20.187944     20.76992            0            0            0    19661.112    2572.5257     5579.355    4298.1762   -515.45796   -591.32595   -14.632294 
   89500    341.11831   -9901.6307   -8365.2325   -9901.6307            0    3247.3539    46.943636    20.187944     20.76992            0            0            0    19683.559    897.62009    3832.2225    5012.2192   -87.184858   -451.42868   -600.10633 
   90000      347.008   -9895.7316   -8332.8062   -9895.7316            0      3422.71    46.956163    20.187944     20.76992            0            0            0    19688.811    520.00303    5359.3078    4388.8191    621.00693   -798.39611     491.2073 
   90500    337.57181   -9865.7218   -8345.2971   -9865.7218            0     4746.583    46.913895    20.187944     20.76992            0            0            0    19671.088    2119.5522     6111.531    6008.6658    228.59181   -152.62071   -46.959398 
   91000    327.90691   -9869.3555   -8392.4615   -9869.3555            0    5098.3386    46.863276    20.187944     20.76992            0            0            0    19649.864    3837.1419    6190.2898    5267.5841    -211.4075   -16.986017   -131.42701 
   91500    342.29581   -9839.5125   -8297.8108   -9839.5125            0    5006.0549    46.908377    20.187944     20.76992            0            0            0    19668.775    2905.0317    6379.0421     5734.091    -709.1634    268.94113   -13.917429 
   92000    348.95935   -9885.5161   -8313.8019   -9885.5161            0    5045.4519    46.861454    20.187944     20.76992            0            0            0      19649.1    4046.4328    5862.1684    5227.7544    313.87311    298.98347   -76.353355 
   92500     345.6121   -9876.4277   -8319.7894   -9876.4277            0    4661.2717    46.891003    20.187944     20.76992            0            0            0     19661.49    3221.0744    5821.7598    4940.9808   -323.34274    -144.0427    91.670846 
   93000    353.62591   -9894.2744   -8301.5419   -9894.2744            0      4769.61    46.906297    20.187944     20.76992            0            0            0    19667.902     3272.656    5326.2103    5709.9638   -307.89385   -259.10131   -155.42796 
   93500     347.1091   -9880.7387   -8317.3579   -9880.7387            0    5205.4744    46.865456    20.187944     20.76992            0            0            0    19650.778    4774.0997    6706.5929    4135.7305   -322.39014   -917.58487    65.992157 
   94000    338.38006   -9889.1937   -8365.1285   -9889.1937            0    4523.1018    46.882447    20.187944     20.76992            0            0            0    19657.902    1638.4173    7467.5829    4463.3051     545.0511   -894.55253   -235.57748 
   94500    331.90829     -9839.85   -8344.9337     -9839.85            0    4682.7757    46.898088    20.187944     20.76992            0            0            0     19664.46    2935.6727    4711.9313     6400.723    203.19941   -942.42412    135.29287 
   95000    336.91554   -9872.6728   -8355.2039   -9872.6728            0    3956.5107    46.952098    20.187944     20.76992            0            0            0    19687.107    1011.3959    4863.9279    5994.2084   -856.37866   -983.33215    80.328001 
   95500    357.51321   -9846.8904   -8236.6495   -9846.8904            0    4610.9324    46.926443    20.187944     20.76992            0            0            0     19676.35    3447.8005    5390.3414    4994.6553   -922.29251   -1427.9965    82.098105 
   96000    348.35724   -9822.3723   -8253.3699   -9822.3723            0    7190.4221    46.776124    20.187944     20.76992            0            0            0    19613.321    8280.5196    6826.9954    6463.7512   -925.50674   -696.96126    509.63202 
   96500    343.17472   -9825.4313    -8279.771   -9825.4313            0    5218.5815    46.868459    20.187944     20.76992            0            0            0    19652.037    4316.5091    5582.8172    5756.4184    256.10395   -551.31204    428.27388 
   97000    339.92236   -9879.9152   -8348.9036   -9879.9152            0    3463.6525    46.996158    20.187944     20.76992            0            0            0    19705.581   -970.61353    6405.0102    4956.5607   -147.35787   -599.89882    36.868995 
   97500    338.37118    -9794.639   -8270.6139    -9794.639            0    3427.3666    46.965786    20.187944     20.76992            0            0            0    19692.847    57.856856    4874.2313    5350.0115    227.75397   -191.43689    292.90665 
   98000    348.92945   -9870.7801   -8299.2004   -9870.7801            0    4544.8982    46.923825    20.187944     20.76992            0            0            0    19675.252    1693.6728    6202.5478    5738.4738   -659.37618    190.47039   -274.83987 
   98500     340.3912   -9878.0968   -8344.9735   -9878.0968            0     4571.505    46.900542    20.187944     20.76992            0            0            0     19665.49    2716.5662    4930.8307    6067.1181   -191.37269     335.8478    95.567394 
   99000    341.31904   -9827.8301   -8290.5277   -9827.8301            0    4572.6794    46.923321    20.187944     20.76992            0            0            0    19675.041    857.13818    6563.0106    6297.8895     -1099.03   -759.01626    889.84291 
   99500    337.13984   -9856.5305   -8338.0513   -9856.5305            0    3407.5463    46.965552    20.187944     20.76992            0            0            0    19692.749    578.09977    4868.0491    4776.4901    555.97496   -387.98055    584.97529 
  100000    348.93216   -9902.9321   -8331.3403   -9902.9321            0    4587.0118    46.883298    20.187944     20.76992            0            0            0    19658.259    2983.6003    5312.0831    5465.3522   -221.96391   -994.92129   -101.21875 
  100500     339.4158   -9876.8298   -8348.0997   -9876.8298            0    4456.6818    46.881899    20.187944     20.76992            0            0            0    19657.672    3084.0244    5912.4497    4373.5714   -830.73136   -546.21054   -666.88044 
  101000    341.49195   -9891.2117   -8353.1306   -9891.2117            0    5306.5424    46.908667    20.187944     20.76992            0            0            0    19668.896    3121.8333     7035.379    5762.4149   -252.47571   -771.78116   -523.71065 
  101500    337.67188   -9933.1082   -8412.2327   -9933.1082            0    4366.2737    46.898076    20.187944     20.76992            0            0            0    19664.455    3302.1336      5091.59    4705.0976    66.652663    120.80229   -349.48972 
  102000    340.78891   -9891.2433   -8356.3287   -9891.2433            0    4024.1713    46.972098    20.187944     20.76992            0            0            0    19695.493    1517.3299    6381.5201    4173.6639   -206.88065   -501.84996   -251.79435 
  102500    351.53643    -9801.885   -8218.5635    -9801.885            0    4736.7046     46.92746    20.187944     20.76992            0            0            0    19676.776    1507.6764    6064.1722    6638.2651    66.584593   -1574.1304    11.028628 
  103000    335.42979   -9885.4387   -8374.6616   -9885.4387            0    4211.6699    46.885777    20.187944     20.76992            0            0            0    19659.298    3853.4636    3993.5602    4787.9859   -152.46505    75.055775     506.9294 
  103500    352.32957   -9893.1766   -8306.2828   -9893.1766            0    4758.3412    46.891703    20.187944     20.76992            0            0            0    19661.783    2912.3289    6493.3091    4869.3855   -296.55808   -1266.4949    95.944319 
  104000    343.37397     -9888.12   -8341.5623     -9888.12            0     4734.168    46.926251    20.187944     20.76992            0            0            0    19676.269    2178.6457    5810.4298    6213.4284    934.64897    147.57074   -82.238844 
  104500    332.82548   -9843.8198   -8344.7725   -9843.8198            0    5467.0885    46.820164    20.187944     20.76992            0            0            0    19631.787    5075.4535    6121.3284    5204.4836    56.646159   -445.11428    254.17961 
  105000     331.8473   -9790.7469   -8296.1053   -9790.7469            0    4817.0641    46.925347    20.187944     20.76992            0            0            0     19675.89     2700.646    5690.0429    6060.5034   -390.77232   -113.22784    387.02362 
  105500    341.45414   -9900.1211   -8362.2103   -9900.1211            0    4353.8977    46.961822    20.187944     20.76992            0            0            0    19691.184    865.93137    6081.2447     6114.517   -687.34389    -193.4658    203.41278 
  106000    331.28471   -9882.7494   -8390.6417   -9882.7494            0    4902.0022    46.915071    20.187944     20.76992            0            0            0    19671.582    3499.1585    5884.5906    5322.2576   -1183.7218   -557.82637    65.890465 
  106500    341.38024   -9837.2695   -8299.6916   -9837.2695            0    6431.4068    46.826213    20.187944     20.76992            0            0            0    19634.323     5385.229    6474.0753    7434.9161   -497.19633   -262.46753    982.67085 
  107000    338.81908   -9874.5327   -8348.4902   -9874.5327            0    2721.0882    46.969636    20.187944     20.76992            0            0            0    19694.461   -731.18343    3771.9475    5122.5006   -359.37522    437.19439    -215.0516 
  107500     343.4286   -9919.9488    -8373.145   -9919.9488            0    3451.8349    46.950278    20.187944     20.76992            0            0            0    19686.344    505.12649    4971.9131    4878.4652    135.58235   -141.92537       101.45 
  108000    334.29119   -9854.4808    -8348.832   -9854.4808            0    4226.0563     46.93017    20.187944     20.76992            0            0            0    19677.913    1040.2554    6512.6615     5125.252    271.10155    -507.1594    1059.1584 
  108500    339.02391   -9869.8702   -8342.9052   -9869.8702            0    6260.5474    46.837741    20.187944     20.76992            0            0            0    19639.157    5303.6707      6945.53    6532.4417   -378.06863    288.95057    299.29989 
  109000    339.25525    -9928.997     -8400.99    -9928.997            0    3359.8892    46.935122    20.187944     20.76992            0            0            0    19679.989    1320.8184    5328.6001    3430.2491   -718.59981   -805.93366    544.07417 
  109500    339.17249   -9877.1202    -8349.486   -9877.1202            0    4921.0593    46.880893    20.187944     20.76992            0            0            0    19657.251    2789.9755     5439.315    6533.8873    -597.9711    453.92645   -293.62509 
  110000    340.28798   -9890.7459   -8358.0875   -9890.7459            0    3977.6784    46.934859    20.187944     20.76992            0            0            0    19679.879     1202.634    6080.9028    4649.4985    590.96667   -81.495706    425.63677 
  110500    341.88795   -9872.2739   -8332.4092   -9872.2739            0    4612.4098    46.899975    20.187944     20.76992            0            0            0    19665.252    3931.3093     6167.875    3738.0449    -682.8655   -350.66366   -166.89177 
  111000    336.70543   -9896.1964   -8379.6738   -9896.1964            0    5082.1369    46.895921    20.187944     20.76992            0            0            0    19663.552    3434.3125    5332.3978    6479.7006    97.030151   -1097.8246   -216.49132 
  111500    343.43346   -9818.2566   -8271.4309   -9818.2566            0    6048.3806    46.818825    20.187944     20.76992            0            0            0    19631.225    5933.9069     5916.884     6294.351   -76.688363    81.917646    871.22456 
  112000    351.08749     -9835.81   -8254.5106     -9835.81            0    4190.3662    46.955739    20.187944     20.76992            0            0            0    19688.634    1093.7319    5807.8817    5669.4849    103.12784   -197.19823    703.96064 
  112500    337.07078   -9889.2934   -8371.1252   -9889.2934            0    3840.5957    47.007699    20.187944     20.76992            0            0            0     19710.42   -404.80655    6413.1132    5513.4804   -184.81167   -800.88987    306.52138 
  113000    336.92545   -9890.8954   -8373.3819   -9890.8954            0    4165.1578     46.89244    20.187944     20.76992            0            0            0    19662.092    2452.4524    5285.0162    4758.0048    174.92129    513.91878    617.97852 
  113500    345.30836     -9841.09   -8285.8198     -9841.09            0    5104.2861    46.916871    20.187944     20.76992            0            0            0    19672.336    4007.2987    7370.9145     3934.645   -271.83937   -1346.3358  -0.70610177 
  114000    340.10881   -9829.7172   -8297.8658   -9829.7172            0    5188.3026    46.885281    20.187944     20.76992            0            0            0     19659.09    4511.0999    6179.6356    4874.1722    534.18726   -1162.3267   -473.49904 
  114500    348.92855   -9893.3202   -8321.7446   -9893.3202            0    5213.5801      46.8567    20.187944     20.76992            0            0            0    19647.106    4361.7296    6107.1097    5171.9011   -87.817018   -279.64355    485.02134 
  115000    333.93939   -9879.1007   -8375.0363   -9879.1007            0    5081.0242    46.886327    20.187944     20.76992            0            0            0    19659.529    3192.6077    6186.1209    5864.3441   -349.36421   -310.56712    362.11572 
  115500    344.54035   -9887.8754   -8336.0643   -9887.8754            0    4570.3688    46.892663    20.187944     20.76992            0            0            0    19662.186    3832.0573    5151.4124    4727.6367    546.86272    122.62663    1396.0728 
  116000    332.82083   -9826.7024    -8327.676   -9826.7024            0    4647.7562    46.923662    20.187944     20.76992            0            0            0    19675.184    1841.6205     6291.116    5810.5321   -756.45286   -1057.8904    85.016486 
  116500     341.4378   -9869.5158   -8331.6786   -9869.5158            0    4095.3826    46.956913    20.187944     20.76992            0            0            0    19689.126    1676.3613    5763.5637    4846.2228      305.958     -820.533    706.03588 
  117000    339.63952   -9899.8083   -8370.0706   -9899.8083            0         3397     46.97673    20.187944     20.76992            0            0            0    19697.435    130.11783    5259.0452    4801.8369     435.6563   -1412.7963   -374.85949 
  117500    343.07772   -9881.4486   -8336.2252   -9881.4486            0    4154.4841    46.961197    20.187944     20.76992            0            0            0    19690.922    975.67736    5397.8715    6089.9034    82.251124   -935.08816    -331.1747 
  118000    347.71898   -9873.4165   -8307.2888   -9873.4165            0    4583.8653    46.893869    20.187944     20.76992            0            0            0    19662.692    2620.8065    5061.7135    6069.0759   -285.04583    100.31687   -473.64343 
  118500    339.55192   -9835.0795   -8305.7363   -9835.0795            0     6156.646    46.815664    20.187944     20.76992            0            0            0      19629.9    7361.2502    6020.9924    5087.6955   -211.96219     190.9207   -25.388069 
  119000    346.74322   -9893.3485   -8331.6157   -9893.3485            0    6183.0458    46.856168    20.187944     20.76992            0            0            0    19646.883    5430.7775    6584.2207    6534.1393    273.70907   -200.22434    246.97892 
  119500    345.16392   -9841.3966    -8286.777   -9841.3966            0    4950.4562    46.909083    20.187944     20.76992            0            0            0    19669.071    3867.5112    5990.6343    4993.2232   -123.33334   -614.24128    647.08349 
  120000    328.02013   -9844.1533   -8366.7493   -9844.1533            0    4124.4546    46.967807    20.187944     20.76992            0            0            0    19693.694    337.63997    6403.4562    5632.2675   -492.71907   -2.5966594    414.95066 
  120500     350.4658   -9850.8409   -8272.3416   -9850.8409            0    5092.3286    46.923502    20.187944     20.76992            0            0            0    19675.116    2449.0293    6569.2545     6258.702   -208.97608   -10.910978   -139.61446 
  121000    335.78789   -9891.9845   -8379.5945   -9891.9845            0    5026.5527    46.891791    20.187944     20.76992            0            0            0     19661.82    3201.4569    5917.7286    5960.4728   -587.42999    4.7521002   -435.31938 
  121500    331.68757   -9826.5401    -8332.618   -9826.5401            0    4888.5568    46.889217    20.187944     20.76992            0            0            0    19660.741    3878.2985    6203.3529    4584.0189    284.00008   -600.81033    165.58812 
  122000    346.71668   -9856.1521   -8294.5387   -9856.1521            0    4076.5578    46.879566    20.187944     20.76992            0            0            0    19656.694    2859.0834    4929.0241    4441.5661    333.97747    69.854853     376.4044 
  122500    340.91797   -9899.4876   -8363.9917   -9899.4876            0    4059.6067     46.92385    20.187944     20.76992            0            0            0    19675.262    2492.0269    5345.0553    4341.7381    -469.3129    445.04233    46.428883 
  123000    355.35903   -9892.3267   -8291.7882   -9892.3267            0    4609.2982    46.919119    20.187944     20.76992            0            0            0    19673.279    2519.1504    6356.6251    4952.1192    1061.9183    -569.0465    110.59138 
  123500    348.96324   -9868.8367   -8297.1049   -9868.8367            0    5019.9567    46.899286    20.187944     20.76992            0            0            0    19664.963    3672.4553    6950.5654    4436.8492   -1129.0636   -1447.2463    91.968642 
  124000    332.22173   -9844.0801   -8347.7521   -9844.0801            0    4095.9372    46.904138    20.187944     20.76992            0            0            0    19666.997    2440.8375    4906.6411    4940.3331   -161.50526   -457.55161   -139.13105 
  124500    343.55051   -9879.7314   -8332.3786   -9879.7314            0    3549.8689    46.959811    20.187944     20.76992            0            0            0    19690.341    1807.7149    5027.7856    3814.1063    527.28543   -1061.5932    24.613693 
  125000    344.26497   -9884.5222   -8333.9514   -9884.5222            0    4368.7129    46.955935    20.187944     20.76992            0            0            0    19688.716    985.17223     5523.627    6597.3395   -54.455333   -679.23133   -108.56512 
  125500    346.27042   -9906.4595   -8346.8562   -9906.4595            0    3205.2172    46.974977    20.187944     20.76992            0            0            0      19696.7   -422.48954    5701.2683     4336.873   -413.53223   -361.21408    265.21052 
  126000    346.22357   -9886.9084    -8327.516   -9886.9084            0    4167.1086    46.933562    20.187944     20.76992            0            0            0    19679.335    1199.7864    6197.8552    5103.6842   -1032.7267   -428.45331   -110.48949 
  126500    336.47881   -9889.9928   -8374.4909   -9889.9928            0    4806.2659    46.916402    20.187944     20.76992            0            0            0     19672.14    3135.0314    5728.1201     5555.646    745.92541   -690.06292    467.95575 
  127000    341.10789   -9874.3707   -8338.0194   -9874.3707            0    4343.3839    46.879541    20.187944     20.76992            0            0            0    19656.684    3625.6934    4144.9185    5259.5397   -244.11709   -814.24593    224.62162 
  127500    338.65249   -9874.8707   -8349.5785   -9874.8707            0     6867.704     46.80467    20.187944     20.76992            0            0            0     19625.29    7819.3728     6191.133    6592.6061    53.301264    180.85137    610.81717 
  128000    336.12438   -9873.4396   -8359.5341   -9873.4396            0    4651.9809    46.913778    20.187944     20.76992            0            0            0    19671.039     4047.322    5511.8726    4396.7481    980.03333    110.87972    666.22714 
  128500    340.85835   -9861.0821   -8325.8548   -9861.0821            0    3846.2886    46.962243    20.187944     20.76992            0            0            0    19691.361   -137.46633    5858.4491     5817.883   -713.65051   -222.64552   -506.50121 
  129000    344.92652   -9921.4987   -8367.9483   -9921.4987            0    4389.3973    46.902339    20.187944     20.76992            0            0            0    19666.243    2156.5012    5978.7161    5032.9745     213.3118    34.832792    370.93789 
  129500    332.05619   -9866.7246   -8371.1422   -9866.7246            0    3631.9166    46.966188    20.187944     20.76992            0            0            0    19693.015    1342.6426    4520.7717    5032.3355   -341.28057   -765.47343   -201.98996 
  130000    331.92455   -9900.5193   -8405.5299   -9900.5193            0    2164.7568    47.014644    20.187944     20.76992            0            0            0    19713.333   -3133.8708    5940.1999    3687.9414   -504.76172   -192.38422   -8.8571221 
  130500    330.40968   -9859.1443   -8370.9778   -9859.1443            0    5580.6772    46.838665    20.187944     20.76992            0            0            0    19639.544    5967.9773    5144.5463    5629.5078   -107.20784    -136.7743    723.92311 
  131000    335.42972   -9883.0853   -8372.3085   -9883.0853            0    6014.2521    46.810999    20.187944     20.76992            0            0            0    19627.944    5943.6019    6672.2985    5426.8559    298.66231   -458.05932    -222.4246 
  131500    348.30679   -9866.2689   -8297.4937   -9866.2689            0    5768.7499    46.885639    20.187944     20.76992            0            0            0    19659.241    3935.8865    6570.7086    6799.6545   -320.22213   -668.07525   -772.79552 
  132000    347.61902   -9867.7279   -8302.0504   -9867.7279            0    4495.1673    46.883502    20.187944     20.76992            0            0            0    19658.345    3738.6213     4826.348    4920.5327   -839.90723   -478.77227    22.262847 
  132500    342.20671    -9850.311   -8309.0107    -9850.311            0    4175.6442    46.875572    20.187944     20.76992            0            0            0    19655.019    2876.0325    5706.1662     3944.734    179.81427   -1137.1838   -262.28904 
  133000     341.0638   -9873.8675   -8337.7148   -9873.8675            0    3901.3174    46.909037    20.187944     20.76992            0            0            0    19669.052    1681.7398    5515.8126    4506.3998   -7.1235186      -1314.8   -243.29752 
  133500    328.86756   -9928.6859   -8447.4651   -9928.6859            0     4261.964    46.928404    20.187944     20.76992            0            0            0    19677.172    2129.5994    5048.0717    5608.2208     392.7814   -110.41755    901.79383 
  134000     339.6541   -9910.7025   -8380.8991   -9910.7025            0    6189.7421    46.808989    20.187944     20.76992            0            0            0    19627.101    6618.8187    4983.3218     6967.086    58.214822    518.51165   -214.74046 
  134500    337.99045    -9871.399   -8349.0887    -9871.399            0    5551.1443    46.853091    20.187944     20.76992            0            0            0    19645.593    4892.9896    6003.4032    5757.0401    615.17493   -133.67725    398.82164 
  135000    344.86803   -9818.0693   -8264.7823   -9818.0693            0    5570.1463    46.864535    20.187944     20.76992            0            0            0    19650.392     4281.302    5905.9287    6523.2082   -731.29013   -47.269366    243.29613 
  135500    350.66466    -9897.755     -8318.36    -9897.755            0    2985.4745    46.953493    20.187944     20.76992            0            0            0    19687.692     890.3668    5067.2795    2998.7774   -175.37177    142.06593   -216.87636 
  136000    343.31277   -9811.3575   -8265.0754   -9811.3575            0    4404.8823    46.911389    20.187944     20.76992            0            0            0    19670.038    3384.3014    5671.2426    4159.1031    357.32421   -73.834618    578.62144 
  136500    353.63208   -9829.4088   -8236.6485   -9829.4088            0    4844.2759    46.913325    20.187944     20.76992            0            0            0    19670.849    2964.1732    6584.9833    4983.6711   -347.95143    -425.4231   -415.18566 
  137000    339.73431   -9842.7769   -8312.6122   -9842.7769            0    5365.8448    46.858882    20.187944     20.76992            0            0            0    19648.021    5828.4172    5469.0747    4800.0425   -246.94754   -632.44355    579.80016 
  137500    347.98443   -9878.4776   -8311.1544   -9878.4776            0    3664.8521    46.969072    20.187944     20.76992            0            0            0    19694.224     106.4636    6124.4441    4763.6485   -252.42725   -893.83835    824.82198 
  138000    336.54763    -9849.072   -8333.2602    -9849.072            0    4355.9716    46.971533    20.187944     20.76992            0            0            0    19695.256    1509.8783    6052.7535     5505.283   -502.97968   -1147.4779    104.21574 
  138500    341.83121   -9828.4883   -8288.8792   -9828.4883            0    4872.5188    46.878264    20.187944     20.76992            0            0            0    19656.148    3864.9823      6481.14    4271.4342   -471.22194   -158.65699   -492.53081 
  139000    343.81742   -9851.2421    -8302.687   -9851.2421            0    3390.7752    46.974435    20.187944     20.76992            0            0            0    19696.473    -1674.797    6292.3478    5554.7749    540.90141   -932.79121   -6.6350781 
  139500    335.95623   -9912.7629   -8399.6147   -9912.7629            0     3265.093     46.96399    20.187944     20.76992            0            0            0    19692.093    956.91423    4416.8897    4421.4751    332.31726   -657.38487   -224.30627 
  140000    335.48782   -9855.7345    -8344.696   -9855.7345            0    6225.8012    46.842265    20.187944     20.76992            0            0            0    19641.054    6382.5306    5976.3715    6318.5014    123.87175   -372.40383   -218.54373 
  140500    349.07755   -9832.6921   -8260.4454   -9832.6921            0     5992.274    46.844301    20.187944     20.76992            0            0            0    19641.907    6059.2724    6135.7897    5781.7599    536.66308   -521.25649   -1145.1699 
  141000    355.78933   -9862.2991   -8259.8226   -9862.2991            0     4007.823    46.941331    20.187944     20.76992            0            0            0    19682.592    1533.6542    6491.1888    3998.6258    228.39997     10.51384    1035.4619 
  141500    344.33412   -9875.2492    -8324.367   -9875.2492            0    4879.1564    46.887109    20.187944     20.76992            0            0            0    19659.857    2534.2564    6611.0094    5492.2034   -1348.8199   -441.21168   -336.26911 
  142000    341.06591   -9852.1689   -8316.0067   -9852.1689            0    3946.0442    46.923545    20.187944     20.76992            0            0            0    19675.135    534.56475    5092.2558    6211.3121   -288.15536    34.973248    842.40144 
  142500    348.85682   -9894.1291   -8322.8766   -9894.1291            0    2962.3975    46.970739    20.187944     20.76992            0            0            0    19694.923   -949.77337    4977.1304    4859.8354    467.49201   -10.400516   -272.57376 
  143000    342.84797   -9765.8806    -8221.692   -9765.8806            0    4547.5211    46.958586    20.187944     20.76992            0            0            0    19689.827     1751.252    6706.8806    5184.4307   -74.591184   -172.05443   -218.64814 
  143500    344.95413   -9827.6734   -8273.9986   -9827.6734            0    4859.8411    46.913972    20.187944     20.76992            0            0            0    19671.121    3081.0679    5904.8288    5593.6268    126.82391    55.364087    122.33883 
  144000    346.61284   -9912.8785   -8351.7329   -9912.8785            0    5381.9454    46.850624    20.187944     20.76992            0            0            0    19644.559    4849.6438    5841.5302    5454.6622   -57.851446   -329.23679     281.1668 
  144500     337.9824   -9903.8559   -8381.5818   -9903.8559            0    4237.1334    46.926444    20.187944     20.76992            0            0            0     19676.35    1912.0028    5185.7802    5613.6173    283.45814   -679.12079    562.93524 
  145000    336.06147   -9818.3264   -8304.7042   -9818.3264            0    4296.7552     46.91261    20.187944     20.76992            0            0            0     19670.55    3156.9313    4437.0064     5296.328   -254.09419   -1142.9883    444.51228 
  145500    334.45785   -9844.7567   -8338.3573   -9844.7567            0    5453.3953    46.872623    20.187944     20.76992            0            0            0    19653.783    3728.5184    6491.4634     6140.204   -610.76719   -316.77376   -31.142368 
  146000    342.25775   -9831.5552   -8290.0249   -9831.5552            0    4974.3233    46.915046    20.187944     20.76992            0            0            0    19671.571    2233.7497    6525.7327    6163.4874    441.59142     96.45988     365.6824 
  146500    335.32187   -9868.1189   -8357.8278   -9868.1189            0    4593.7586    46.956675    20.187944     20.76992            0            0            0    19689.026    889.67291    6882.5704    6009.0324    586.83831    233.37744    880.24972 
  147000    342.00904   -9903.7411    -8363.331   -9903.7411            0    3657.7475    46.920783    20.187944     20.76992            0            0            0    19673.976    1065.7669    5266.5562    4640.9195   -165.11515    180.86671    112.77478 
  147500    343.55324   -9859.3389   -8311.9738   -9859.3389            0    4778.6549    46.929868    20.187944     20.76992            0            0            0    19677.786    2965.0675    5985.9748    5384.9226   -236.21581    8.4802096    11.797815 
  148000    345.44283   -9875.9409    -8320.065   -9875.9409            0    4944.0913    46.865016    20.187944     20.76992            0            0            0    19650.593     4032.295    6115.3397    4684.6393   -450.34248   -1206.7573    296.34978 
  148500    351.04582   -9879.7888    -8298.677   -9879.7888            0    4573.9984    46.903437    20.187944     20.76992            0            0            0    19666.703    3135.2133    5372.2169    5214.5651    40.996147   -57.754051    599.55381 
  149000    337.48824   -9888.9638   -8368.9155   -9888.9638            0    4657.5091    46.878388    20.187944     20.76992            0            0            0      19656.2    3574.8387    5446.6446    4951.0441   -365.97858   -1080.1517    141.47668 
  149500    334.90775   -9864.5623   -8356.1365   -9864.5623            0    4069.1551    46.890277    20.187944     20.76992            0            0            0    19661.185    1955.7999     5594.674    4656.9914    261.99616   -754.30863    281.46152 
  150000    334.42778   -9872.6464   -8366.3824   -9872.6464            0     4884.464    46.862815    20.187944     20.76992            0            0            0     19649.67    4456.6614    5710.4247     4486.306   0.68753744   -855.64448    300.34518 
Loop time of 274.873 on 32 procs for 100000 steps with 2268 atoms

Performance: 31.433 ns/day, 0.764 hours/ns, 363.804 timesteps/s
99.2% CPU use with 32 MPI tasks x 1 OpenMP threads

MPI task timing breakdown:
Section |  min time  |  avg time  |  max time  |%varavg| %total
---------------------------------------------------------------
Pair    | 45.813     | 56.099     | 70.194     |  75.4 | 20.41
Bond    | 0.11288    | 0.12274    | 0.12945    |   1.0 |  0.04
Kspace  | 114.26     | 128.15     | 138.44     |  49.5 | 46.62
Neigh   | 4.4823     | 4.5637     | 4.6183     |   1.8 |  1.66
Comm    | 30.084     | 32.266     | 33.86      |  17.1 | 11.74
Output  | 0.59953    | 0.59992    | 0.60429    |   0.1 |  0.22
Modify  | 41.205     | 46.577     | 52.086     |  46.5 | 16.94
Other   |            | 6.494      |            |       |  2.36

Nlocal:        70.8750 ave          79 max          59 min
Histogram: 1 0 0 3 6 5 6 5 2 4
Nghost:        3144.09 ave        3182 max        3097 min
Histogram: 2 2 1 4 5 3 5 4 2 4
Neighs:        21733.8 ave       26759 max       16279 min
Histogram: 1 0 4 2 9 7 2 5 0 2

Total # of neighbors = 695480
Ave neighs/atom = 306.64903
Ave special neighs/atom = 2.0000000
Neighbor list builds = 5541
Dangerous builds = 0
write_restart   restart.melted
System init for write_restart ...
PPPM initialization ...
  extracting TIP4P info from pair style
  using 12-bit tables for long-range coulomb (../kspace.cpp:340)
  G vector (1/distance) = 0.37279694
  grid = 48 27 27
  stencil order = 5
  estimated absolute RMS force accuracy = 0.0033157533
  estimated relative force accuracy = 9.9852927e-06
  using double precision FFTW3
  3d grid and FFT values/proc = 6292 1344
Last active /omp style is kspace_style pppm/tip4p/omp
write_data   	water.data.melted
System init for write_data ...
PPPM initialization ...
  extracting TIP4P info from pair style
  using 12-bit tables for long-range coulomb (../kspace.cpp:340)
  G vector (1/distance) = 0.37279694
  grid = 48 27 27
  stencil order = 5
  estimated absolute RMS force accuracy = 0.0033157533
  estimated relative force accuracy = 9.9852927e-06
  using double precision FFTW3
  3d grid and FFT values/proc = 6292 1344
Last active /omp style is kspace_style pppm/tip4p/omp
WARNING: Not all mixed pair coeffs generated from mixing. Use write_data with 'pair ij' option to store all pair coeffs. (../write_data.cpp:312)

unfix 		2
fix		2 tstatGrp temp/csvr ${melttemp} ${temperature} ${tempDamp} ${seed}
fix		2 tstatGrp temp/csvr 450 ${temperature} ${tempDamp} ${seed}
fix		2 tstatGrp temp/csvr 450 230 ${tempDamp} ${seed}
fix		2 tstatGrp temp/csvr 450 230 100 ${seed}
fix		2 tstatGrp temp/csvr 450 230 100 745823

run             25000
PPPM initialization ...
  extracting TIP4P info from pair style
  using 12-bit tables for long-range coulomb (../kspace.cpp:340)
  G vector (1/distance) = 0.37279694
  grid = 48 27 27
  stencil order = 5
  estimated absolute RMS force accuracy = 0.0033157533
  estimated relative force accuracy = 9.9852927e-06
  using double precision FFTW3
  3d grid and FFT values/proc = 6292 1344
Last active /omp style is kspace_style pppm/tip4p/omp
Per MPI rank memory allocation (min/avg/max) = 9.542 | 9.558 | 9.575 Mbytes
Step Temp PotEng TotEng E_pair E_mol Press Lx Ly Lz Xy Xz Yz Volume Pxx Pyy Pzz Pxy Pxz Pyz 
  150000    334.42778   -9872.6463   -8366.3822   -9872.6463            0    5134.7703    46.862815    20.187944     20.76992            0            0            0     19649.67    5535.4137    5408.4228    4460.4743    43.195137   -834.39785     277.9174 
  150500    342.70893    -9899.223   -8355.6606    -9899.223            0    4133.1481    46.939769    20.187944     20.76992            0            0            0    19681.937    1717.0909    5860.7903    4821.5631    152.55182    295.01948    486.00157 
  151000    338.31353   -9882.9977   -8359.2321   -9882.9977            0    4696.7589    46.919393    20.187944     20.76992            0            0            0    19673.394    3049.1156    6215.2143    4825.9468   -6.9609246    489.40583    904.27624 
  151500    337.91339   -9916.7605   -8394.7973   -9916.7605            0    3851.7979    46.977864    20.187944     20.76992            0            0            0    19697.911    970.18728    5281.2014    5304.0049    346.25876     300.9127    644.88449 
  152000    337.47076   -9887.8727   -8367.9031   -9887.8727            0    3414.1401    46.970598    20.187944     20.76992            0            0            0    19694.864     1094.053    5416.1345    3732.2326   -454.96186   -1217.5996    681.24433 
  152500    342.78058    -9926.318   -8382.4329    -9926.318            0    3801.5244    46.926973    20.187944     20.76992            0            0            0    19676.572    2102.7322    6131.8864    3169.9547    190.74919    55.858988   -393.94909 
  153000    318.81416   -9930.4169   -8494.4766   -9930.4169            0    3680.4726    46.958444    20.187944     20.76992            0            0            0    19689.768    1879.8979    5317.3069    3844.2131    256.02951   -204.78776    537.63722 
  153500    324.62439    -10031.58   -8569.4706    -10031.58            0    2702.1489    46.983804    20.187944     20.76992            0            0            0    19700.401     226.0427    3808.7673    4071.6367   -348.05917    546.67885    585.16045 
  154000    318.14884   -9935.0521   -8502.1084   -9935.0521            0     4821.525    46.928269    20.187944     20.76992            0            0            0    19677.116    3698.4757    5220.6326    5545.4668   -202.39781   -459.86925   -405.33272 
  154500    313.72623   -9917.6064   -8504.5822   -9917.6064            0     5817.636     46.84351    20.187944     20.76992            0            0            0    19641.576    6135.2481    5942.2366    5375.4232    -59.10535    747.08753   -259.83683 
  155000    327.50071   -10011.516   -8536.4513   -10011.516            0    5072.3054    46.897433    20.187944     20.76992            0            0            0    19664.186    4423.8178    5625.6539    5167.4445   -703.11777   -632.62542   -366.22678 
  155500    330.37038   -10024.372   -8536.3822   -10024.372            0    3385.1479    46.954293    20.187944     20.76992            0            0            0    19688.027     1805.944    4537.7429    3811.7566   -232.99092   -549.54154    241.24536 
  156000    303.14536    -10017.62   -8652.2517    -10017.62            0    4045.9831    46.940261    20.187944     20.76992            0            0            0    19682.144    2664.7777    5519.8598    3953.3119    153.00654    346.70761    170.18925 
  156500    318.74985    -10047.23   -8611.5797    -10047.23            0    3749.6677    46.938537    20.187944     20.76992            0            0            0    19681.421    1911.9825    5062.0692    4274.9514   -656.78789   -144.88143    873.29805 
  157000    313.43499   -10052.677   -8640.9647   -10052.677            0    5310.0226    46.842189    20.187944     20.76992            0            0            0    19641.022    5602.1794    6005.8036    4322.0847   -224.66405   -138.17979    334.73682 
  157500    305.73062   -10135.255   -8758.2432   -10135.255            0    4061.8922    46.877277    20.187944     20.76992            0            0            0    19655.734    3779.4185    4194.5736    4211.6845    72.830181   -557.01273    35.842486 
  158000    307.41149   -10091.408   -8706.8254   -10091.408            0     2856.185    46.916881    20.187944     20.76992            0            0            0     19672.34    2672.2758    3087.7681    2808.5111   -270.66523   -281.26408    155.19756 
  158500    307.41614   -10138.802   -8754.1983   -10138.802            0    4080.0955    46.914445    20.187944     20.76992            0            0            0    19671.319    2837.4605    4779.7267    4623.0993    640.50783    111.23924    237.12387 
  159000    303.65557   -10108.079   -8740.4127   -10108.079            0    4094.2697    46.875278    20.187944     20.76992            0            0            0    19654.896    4269.2048    4552.5665    3461.0377    378.18643   -709.86141   -2.7457355 
  159500    301.15789   -10135.139   -8778.7222   -10135.139            0    5794.4993    46.803264    20.187944     20.76992            0            0            0    19624.701    7741.7183     4803.771    4838.0086   -571.85743    220.53402    913.85278 
  160000    296.80381   -10191.581   -8854.7754   -10191.581            0    3022.5613    46.953883    20.187944     20.76992            0            0            0    19687.855    2067.9301    4363.9991    2635.7546   -176.55932    -272.8602    8.9106745 
  160500    297.24431   -10120.243   -8781.4531   -10120.243            0    3074.5797    46.972911    20.187944     20.76992            0            0            0    19695.834    318.54574    5185.3803    3719.8129   -456.81413   -241.37431    369.54279 
  161000    299.91176   -10178.094   -8827.2905   -10178.094            0     3782.549    46.901041    20.187944     20.76992            0            0            0    19665.699     2317.285    5066.9732    3963.3886   -209.15395   -290.79724    214.69888 
  161500    294.14993   -10216.434   -8891.5816   -10216.434            0    4277.3097    46.870516    20.187944     20.76992            0            0            0      19652.9    5492.8878    3978.2399    3360.8014   -775.10935    513.22283    217.71736 
  162000    293.18369   -10259.505   -8939.0049   -10259.505            0    4278.6545    46.904781    20.187944     20.76992            0            0            0    19667.267    2817.2849      5620.49    4398.1886   -110.99841   -232.62813   -7.1862889 
  162500    278.33372   -10271.758   -9018.1421   -10271.758            0    2400.6003    46.957196    20.187944     20.76992            0            0            0    19689.244    261.66095    3645.3616    3294.7785    843.95767   -75.856851    99.416976 
  163000    285.06548   -10265.608   -8981.6714   -10265.608            0    4106.6261    46.793819    20.187944     20.76992            0            0            0     19620.74    5981.7432    3593.4815    2744.6536    185.70954   -65.422151    219.64008 
  163500    275.31871   -10301.556   -9061.5196   -10301.556            0    3187.8131    46.865153    20.187944     20.76992            0            0            0    19650.651    2927.7622    3333.5418    3302.1353     557.0461      236.926    90.435138 
  164000    279.18237   -10369.207   -9111.7684   -10369.207            0    3460.9889    46.903889    20.187944     20.76992            0            0            0    19666.893    2521.7923    3658.6467    4202.5278    71.953225    73.963347    165.77697 
  164500    275.87554   -10343.347    -9100.802   -10343.347            0    2860.8312    46.932508    20.187944     20.76992            0            0            0    19678.893    1508.5364    3251.7042    3822.2529   -18.201359    453.80169    787.70307 
  165000    279.79793   -10379.449   -9119.2381   -10379.449            0    3930.6151    46.858802    20.187944     20.76992            0            0            0    19647.988     3216.123    3827.8825    4747.8397    15.498776   -417.06553    261.21255 
  165500     268.2244   -10389.477   -9181.3928   -10389.477            0    3375.2114    46.912836    20.187944     20.76992            0            0            0    19670.644     1840.366    4039.9698    4245.2986    313.24131   -642.09691    709.64017 
  166000    270.46262   -10422.759   -9204.5945   -10422.759            0    3526.9387    46.881883    20.187944     20.76992            0            0            0    19657.666    3009.4605    4132.1648    3439.1907   -535.92738   -31.144574    468.08801 
  166500    273.82995   -10412.152   -9178.8212   -10412.152            0    4437.1052    46.841587    20.187944     20.76992            0            0            0    19640.769    4805.3919    4873.1093    3632.8145    198.81208   -465.70204    488.44998 
  167000    270.14919   -10486.481   -9269.7283   -10486.481            0     2578.793    46.920053    20.187944     20.76992            0            0            0     19673.67    2324.7824    3673.6702    1737.9265   -276.40123   -199.93692   -59.558664 
  167500    267.06364   -10463.691   -9260.8355   -10463.691            0    2358.4137    46.932587    20.187944     20.76992            0            0            0    19678.926    702.23648    3284.3868    3088.6179   -733.83288   -277.52644    1027.7167 
  168000    260.97379   -10502.602   -9327.1748   -10502.602            0     3277.689    46.919859    20.187944     20.76992            0            0            0    19673.589    2272.0523    4293.0149    3267.9997    188.50782   -868.87305   -266.81629 
  168500    261.90113   -10479.966   -9300.3626   -10479.966            0    3753.9701     46.88921    20.187944     20.76992            0            0            0    19660.738    3606.4515    4231.2812    3424.1777     173.2055    169.81009    -107.6671 
  169000    252.10506   -10493.915   -9358.4324   -10493.915            0    3419.9885    46.902873    20.187944     20.76992            0            0            0    19666.467    3092.5456    4706.7358    2460.6842   -676.66479    100.78643   -83.114138 
  169500     257.2688   -10555.948   -9397.2082   -10555.948            0    3932.3592    46.863734    20.187944     20.76992            0            0            0    19650.056    4013.7789    3765.6506    4017.6481   -132.39535   -390.66963   -237.41943 
  170000    256.42174   -10566.365   -9411.4402   -10566.365            0    3671.0874    46.847284    20.187944     20.76992            0            0            0    19643.158    4403.3905    3243.7689    3366.1028   -825.83206   -165.35275   -706.72005 
  170500    253.17168   -10603.857   -9463.5707   -10603.857            0     3072.492    46.877675    20.187944     20.76992            0            0            0    19655.901    2640.4222    3462.2684    3114.7853   -451.99829   -681.64189    412.74058 
  171000    252.27183   -10596.699   -9460.4656   -10596.699            0    3707.4477    46.892352    20.187944     20.76992            0            0            0    19662.056    3131.3263     3922.262    4068.7549   -82.980886    97.283112    610.72342 
  171500    249.27279   -10625.114   -9502.3882   -10625.114            0    4309.4584    46.812414    20.187944     20.76992            0            0            0    19628.537    4056.5589    3841.9214     5029.895   -236.19421   -742.47509    370.98436 
  172000    246.99371   -10639.744   -9527.2834   -10639.744            0    4250.1127    46.812614    20.187944     20.76992            0            0            0    19628.621    5741.3475    3348.2995    3660.6911    220.91608   -925.22884   -48.104544 
  172500    245.29928   -10673.453   -9568.6239   -10673.453            0    2631.6693    46.897609    20.187944     20.76992            0            0            0     19664.26     2152.934    3422.4028    2319.6711    692.09245   -355.29833   -407.50049 
  173000    244.83533   -10662.596   -9559.8567   -10662.596            0    2523.0416    46.892931    20.187944     20.76992            0            0            0    19662.298    2371.7802    2896.5567    2300.7878   -296.65991    44.696516     316.1922 
  173500    239.44817   -10707.982   -9629.5065   -10707.982            0    4633.1218    46.779026    20.187944     20.76992            0            0            0    19614.538    6621.1522    4462.7336    2815.4795    608.70542   -485.82612    441.21239 
  174000    234.50957   -10700.534   -9644.3022   -10700.534            0    4080.5768     46.80225    20.187944     20.76992            0            0            0    19624.275    6161.3017    3233.6081    2846.8208    223.93768   -327.29635    254.74283 
  174500    228.88261   -10748.313   -9717.4246   -10748.313            0    2550.1747    46.868117    20.187944     20.76992            0            0            0    19651.894    2023.3693    3017.1194    2610.0354   -289.13958   -578.16995    332.24944 
  175000    228.77816   -10763.606   -9733.1885   -10763.606            0    2527.6639     46.88427    20.187944     20.76992            0            0            0    19658.666    1957.2359     3286.514    2339.2419    -394.1903   -277.64915    666.76177 
Loop time of 70.0044 on 32 procs for 25000 steps with 2268 atoms

Performance: 30.855 ns/day, 0.778 hours/ns, 357.120 timesteps/s
99.2% CPU use with 32 MPI tasks x 1 OpenMP threads

MPI task timing breakdown:
Section |  min time  |  avg time  |  max time  |%varavg| %total
---------------------------------------------------------------
Pair    | 11.421     | 14.042     | 17.559     |  37.4 | 20.06
Bond    | 0.029769   | 0.030837   | 0.032397   |   0.4 |  0.04
Kspace  | 29.587     | 33.11      | 35.837     |  24.5 | 47.30
Neigh   | 0.87572    | 0.89212    | 0.90664    |   0.8 |  1.27
Comm    | 7.7514     | 8.1628     | 8.454      |   7.2 | 11.66
Output  | 0.14984    | 0.14999    | 0.15097    |   0.1 |  0.21
Modify  | 10.578     | 11.878     | 13.223     |  22.8 | 16.97
Other   |            | 1.738      |            |       |  2.48

Nlocal:        70.8750 ave          79 max          66 min
Histogram: 9 3 3 4 2 3 2 2 1 3
Nghost:        3133.59 ave        3184 max        3083 min
Histogram: 1 5 0 4 5 7 4 2 2 2
Neighs:        21727.5 ave       26734 max       18531 min
Histogram: 2 6 6 7 1 2 4 1 2 1

Total # of neighbors = 695279
Ave neighs/atom = 306.56041
Ave special neighs/atom = 2.0000000
Neighbor list builds = 1083
Dangerous builds = 0
write_restart   restart.melted
System init for write_restart ...
PPPM initialization ...
  extracting TIP4P info from pair style
  using 12-bit tables for long-range coulomb (../kspace.cpp:340)
  G vector (1/distance) = 0.37278019
  grid = 48 27 27
  stencil order = 5
  estimated absolute RMS force accuracy = 0.0033179959
  estimated relative force accuracy = 9.9920461e-06
  using double precision FFTW3
  3d grid and FFT values/proc = 6292 1344
Last active /omp style is kspace_style pppm/tip4p/omp
write_data   	water.data.melted
System init for write_data ...
PPPM initialization ...
  extracting TIP4P info from pair style
  using 12-bit tables for long-range coulomb (../kspace.cpp:340)
  G vector (1/distance) = 0.37278019
  grid = 48 27 27
  stencil order = 5
  estimated absolute RMS force accuracy = 0.0033179959
  estimated relative force accuracy = 9.9920461e-06
  using double precision FFTW3
  3d grid and FFT values/proc = 6292 1344
Last active /omp style is kspace_style pppm/tip4p/omp
WARNING: Not all mixed pair coeffs generated from mixing. Use write_data with 'pair ij' option to store all pair coeffs. (../write_data.cpp:312)

# enable motion of ice oxygens
unfix		1
unfix		2
fix             1 all nph x ${pressure} ${pressure} ${pressureDamp}
fix             1 all nph x 3000 ${pressure} ${pressureDamp}
fix             1 all nph x 3000 3000 ${pressureDamp}
fix             1 all nph x 3000 3000 1000
fix             2 all temp/csvr ${temperature} ${temperature} ${tempDamp} ${seed}
fix             2 all temp/csvr 230 ${temperature} ${tempDamp} ${seed}
fix             2 all temp/csvr 230 230 ${tempDamp} ${seed}
fix             2 all temp/csvr 230 230 100 ${seed}
fix             2 all temp/csvr 230 230 100 745823
velocity        all create ${temperature} ${seed}
velocity        all create 230 ${seed}
velocity        all create 230 745823

run             100000
PPPM initialization ...
  extracting TIP4P info from pair style
  using 12-bit tables for long-range coulomb (../kspace.cpp:340)
  G vector (1/distance) = 0.37278019
  grid = 48 27 27
  stencil order = 5
  estimated absolute RMS force accuracy = 0.0033179959
  estimated relative force accuracy = 9.9920461e-06
  using double precision FFTW3
  3d grid and FFT values/proc = 6292 1344
Last active /omp style is kspace_style pppm/tip4p/omp
Per MPI rank memory allocation (min/avg/max) = 9.542 | 9.558 | 9.575 Mbytes
Step Temp PotEng TotEng E_pair E_mol Press Lx Ly Lz Xy Xz Yz Volume Pxx Pyy Pzz Pxy Pxz Pyz 
  175000          230   -10763.606   -9727.6853   -10763.606            0     1072.875     46.88427    20.187944     20.76992            0            0            0    19658.666     1851.364    2039.4675   -672.20664   -358.70327   -1075.8329    3682.1293 
  175500    226.24101   -10742.384   -9723.3937   -10742.384            0    1995.6833    47.030557    20.187944     20.76992            0            0            0    19720.005    1755.2648    2312.2273    1919.5578   -428.39109   -596.49181    398.32147 
  176000    230.38223   -10759.294   -9721.6513   -10759.294            0    3003.4077    46.989277    20.187944     20.76992            0            0            0    19702.696    3533.8705     2511.179    2965.1736   -557.34608   -236.20269     166.1137 
  176500    230.96382   -10759.323   -9719.0611   -10759.323            0     3131.908    47.135795    20.187944     20.76992            0            0            0    19764.132    4146.8562    2432.3762    2816.4916    -97.95258    249.18646    16.999654 
  177000    226.79118   -10729.912   -9708.4434   -10729.912            0    2485.6097    47.419335    20.187944     20.76992            0            0            0     19883.02    3236.9972    1983.6815    2236.1504   -408.15431    15.520003    676.59661 
  177500    231.44863   -10730.415   -9687.9698   -10730.415            0    3244.5132    46.999164    20.187944     20.76992            0            0            0    19706.842    3468.9891    3318.0231    2946.5273    253.75966   -154.03224   -386.14655 
  178000     228.2091   -10731.736   -9703.8814   -10731.736            0    2454.1243    47.134358    20.187944     20.76992            0            0            0    19763.529    3295.8492    1817.0002    2249.5235    544.95196    329.07084   -240.71794 
  178500    224.04415   -10745.067   -9735.9718   -10745.067            0    1985.4141    47.210686    20.187944     20.76992            0            0            0    19795.534    2688.7656    1040.1229    2227.3537      216.257   -443.89004   -96.045481 
  179000    230.96805   -10797.232   -9756.9511   -10797.232            0    3043.6699    47.041867    20.187944     20.76992            0            0            0    19724.747    3804.5656    1945.6402     3380.804   -297.13217    41.135779    439.88112 
  179500    231.75993   -10785.026   -9741.1786   -10785.026            0    2320.5922    47.021239    20.187944     20.76992            0            0            0    19716.098    2246.6838    2052.9262    2662.1665    763.42017    516.83744   -115.25575 
  180000    226.03527   -10709.893   -9691.8296   -10709.893            0    3014.6295    47.041584    20.187944     20.76992            0            0            0    19724.629    2884.1036    1769.8617    4389.9232    307.44747    527.92758   -530.27839 
  180500    218.97262   -10771.999   -9785.7451   -10771.999            0    2005.8372    47.251781    20.187944     20.76992            0            0            0    19812.764    1684.5868    1697.6957     2635.229   -99.508557    190.07495   -314.90119 
  181000    238.40515   -10780.528   -9706.7502   -10780.528            0    2843.3582    46.866428    20.187944     20.76992            0            0            0    19651.185    3636.8577    2018.9603    2874.2565   -272.01181    167.74521    380.85822 
  181500    223.42224   -10753.983   -9747.6886   -10753.983            0      3171.19    47.291646    20.187944     20.76992            0            0            0     19829.48    4066.2928    2230.0019    3217.2753   -478.07541    448.14064    191.33735 
  182000    234.06915   -10768.359   -9714.1109   -10768.359            0    2143.6396    47.382691    20.187944     20.76992            0            0            0    19867.655    2136.7763    1746.0455    2548.0969    28.243654    5.9042088    34.512989 
  182500    222.25394   -10732.178    -9731.145   -10732.178            0    2868.7548    47.046575    20.187944     20.76992            0            0            0    19726.721    3177.4948    3085.0654    2343.7043    372.93251   -204.95072   -67.682562 
  183000    227.21778   -10773.438   -9750.0479   -10773.438            0     1592.063    47.258336    20.187944     20.76992            0            0            0    19815.513    1483.9225    991.24215    2301.0242    292.63781    912.77433   -168.37243 
  183500    224.82117   -10775.326   -9762.7303   -10775.326            0    2887.6571     46.92206    20.187944     20.76992            0            0            0    19674.512    2629.3793    2619.6856    3413.9065    346.85317    119.98409    1297.3595 
  184000    236.26097   -10764.584   -9700.4635   -10764.584            0    2759.0512    47.156538    20.187944     20.76992            0            0            0    19772.829     3355.698     2009.642    2911.8136    381.03687   -217.72613    586.58947 
  184500    230.08742   -10741.213   -9704.8984   -10741.213            0    3174.0036    46.918543    20.187944     20.76992            0            0            0    19673.037     4044.642    2234.5868    3242.7819     1121.522    619.56006   -147.73951 
  185000    239.18425   -10768.087   -9690.8003   -10768.087            0    1487.6829    47.570303    20.187944     20.76992            0            0            0    19946.321     1909.529    1412.7763    1140.7436    599.99315   -194.41458    325.30618 
  185500     229.9541   -10707.998   -9672.2835   -10707.998            0    3194.6432    47.017753    20.187944     20.76992            0            0            0    19714.636    3140.4467    2245.6661    4197.8167    129.51409   -43.513351   -394.70868 
  186000    229.86468   -10751.734    -9716.423   -10751.734            0    1982.8001    47.439848    20.187944     20.76992            0            0            0    19891.621     2903.574    872.73846    2172.0879   -483.75812    438.65851    319.21718 
  186500    231.04521   -10774.172   -9733.5432   -10774.172            0    3352.1289    47.033625    20.187944     20.76992            0            0            0    19721.291    3493.9666    2624.9998    3937.4203    15.452147    334.01765     569.1029 
  187000    236.73342   -10758.762   -9692.5134   -10758.762            0    3970.9591     46.93357    20.187944     20.76992            0            0            0    19679.338    5108.5427    3014.7421    3789.5923   -6.0629928    358.60153   -390.93486 
  187500    238.52576   -10785.788   -9711.4667   -10785.788            0    2842.8269    47.233507    20.187944     20.76992            0            0            0    19805.102    3527.8925    1081.4615    3919.1266    -186.1552    721.15861   -452.94476 
  188000    236.89032   -10778.448   -9711.4936   -10778.448            0    2464.6395    47.142326    20.187944     20.76992            0            0            0     19766.87    2802.5752     1281.613    3309.7302    619.07475    153.55944     225.5839 
  188500    227.00967    -10819.63   -9797.1773    -10819.63            0    2558.1788    47.069543    20.187944     20.76992            0            0            0    19736.352    3778.8489    918.03088    2977.6565   -200.80683    454.13177   -685.95657 
  189000    224.95315   -10804.092   -9790.9017   -10804.092            0    2124.3763    47.209532    20.187944     20.76992            0            0            0     19795.05    2155.1682    1520.0292    2697.9315    84.765779    298.48039   -365.57849 
  189500    222.46695   -10799.199   -9797.2071   -10799.199            0     2088.251    47.287785    20.187944     20.76992            0            0            0    19827.861    2251.3343    1305.8528     2707.566     11.68737    193.82936   -258.93017 
  190000    231.15835   -10785.945   -9744.8071   -10785.945            0    3306.9649    46.981227    20.187944     20.76992            0            0            0    19699.321    4016.5341    2526.9622    3377.3984    -89.79449    556.60678   -548.11083 
  190500    229.10209   -10789.415   -9757.5386   -10789.415            0    2658.1211    47.556671    20.187944     20.76992            0            0            0    19940.606    4491.6746    895.60522    2587.0836    522.21205   -416.27898   -145.45038 
  191000     234.4396   -10798.785   -9742.8682   -10798.785            0    3373.0695    47.213067    20.187944     20.76992            0            0            0    19796.532    3846.1176    2427.3757    3845.7153    803.80681    617.20151   -244.76924 
  191500    230.23027   -10761.276    -9724.318   -10761.276            0    3051.2961    47.330362    20.187944     20.76992            0            0            0    19845.714    2160.7435    3882.2194    3110.9254    207.91311    255.48603   -818.48855 
  192000    230.60622    -10780.24   -9741.5888    -10780.24            0    2622.3219    47.265718    20.187944     20.76992            0            0            0    19818.609    3456.0038    1507.0135    2903.9485    334.85351   -65.819246    427.52932 
  192500    232.45489   -10811.985   -9765.0072   -10811.985            0    2490.8457    47.475867    20.187944     20.76992            0            0            0    19906.724    1384.2559    3271.3575    2816.9238   -267.90936    407.77026   -436.87274 
  193000    226.76787    -10804.12   -9782.7568    -10804.12            0      2996.19    47.086411    20.187944     20.76992            0            0            0    19743.425      2697.81    3446.1867    2844.5734   -256.35007    124.58414    61.742833 
  193500    225.36936   -10782.339   -9767.2742   -10782.339            0    2791.4807    47.430775    20.187944     20.76992            0            0            0    19887.817    2054.0648    3412.8643     2907.513    -722.4488    296.20374    435.15881 
  194000    227.81637   -10781.842   -9755.7561   -10781.842            0    3421.2979    47.378956    20.187944     20.76992            0            0            0     19866.09    4604.7519     2518.448    3140.6937   -61.578826   -1164.6848    275.84839 
  194500     229.4522    -10774.97   -9741.5168    -10774.97            0    2360.4076     47.67837    20.187944     20.76992            0            0            0    19991.634    2831.8789    1858.1343    2391.2096   -144.23863    116.97241   -325.03332 
  195000     222.8259   -10787.827   -9784.2183   -10787.827            0    3928.8104    47.296886    20.187944     20.76992            0            0            0    19831.677    4610.6033    2293.8831    4881.9448   -192.50256    289.69044    373.48666 
  195500    227.84528   -10791.729   -9765.5128   -10791.729            0    2904.4788    47.487077    20.187944     20.76992            0            0            0    19911.425    2313.0852    3252.5701    3147.7812   -50.842566   -289.90761    243.02072 
  196000    226.59853   -10794.977   -9774.3767   -10794.977            0    2821.3304    47.512612    20.187944     20.76992            0            0            0    19922.131    1443.3894    3958.6207    3061.9809    815.31243    416.12675   -681.36559 
  196500    229.59358   -10843.134   -9809.0434   -10843.134            0    2329.6192    47.354404    20.187944     20.76992            0            0            0    19855.795    2369.3467    2159.9708    2459.5401     874.8573   -669.35475   -314.54701 
  197000      232.313   -10794.371   -9748.0326   -10794.371            0    1684.9017    48.016931    20.187944     20.76992            0            0            0    20133.593     2208.526    967.55073    1878.6284    154.29212    136.75971   -310.79593 
  197500    231.55385   -10783.083   -9740.1636   -10783.083            0    3474.1581    47.062535    20.187944     20.76992            0            0            0    19733.414    4083.3712    3199.1628    3139.9401     545.6221    -166.4304    175.91433 
  198000    224.88433   -10835.631   -9822.7507   -10835.631            0    2685.9391    47.837993    20.187944     20.76992            0            0            0    20058.564    3063.8176     2275.551    2718.4488   -56.133378    15.962964    462.47818 
  198500    228.62812   -10783.875   -9754.1333   -10783.875            0    3304.9202    47.394448    20.187944     20.76992            0            0            0    19872.585    3893.3917    3364.6386    2656.7303    1233.4688    238.08092    195.07877 
  199000    237.49399   -10777.169    -9707.495   -10777.169            0    3408.1287    47.482455    20.187944     20.76992            0            0            0    19909.487    3485.9672    3287.2126    3451.2063     71.53797    690.17824   -316.50227 
  199500    224.01948   -10769.962   -9760.9777   -10769.962            0    2233.1112    47.711198    20.187944     20.76992            0            0            0    20005.399    2937.2048    1733.0981    2029.0307    552.03815    88.997535    269.99222 
  200000     236.0631   -10793.894   -9730.6653   -10793.894            0    2201.2721    47.429965    20.187944     20.76992            0            0            0    19887.478    2338.6459    2055.9275    2209.2429   -199.49321    1122.1179    -386.9589 
  200500    237.57208   -10822.947   -9752.9217   -10822.947            0    2095.2022    47.489744    20.187944     20.76992            0            0            0    19912.543     2001.174    1820.0085    2464.4242    501.44892   -469.75565   -89.424934 
  201000    237.33542   -10780.597   -9711.6368   -10780.597            0     3112.854    47.412025    20.187944     20.76992            0            0            0    19879.955    3550.1357    2253.7656    3534.6608    557.51278    339.36092    337.61171 
  201500    227.60858   -10816.152   -9791.0016   -10816.152            0    2936.0373    47.452663    20.187944     20.76992            0            0            0    19896.995     3131.816    2265.2017    3411.0942   0.38856991   -580.11265   -611.48298 
  202000    223.87146   -10749.143   -9740.8254   -10749.143            0    2800.4128    47.382895    20.187944     20.76992            0            0            0    19867.741    3182.1987    1492.1661    3726.8736   -296.47486   -505.32724   -624.75538 
  202500    230.55368   -10781.616   -9743.2015   -10781.616            0    3294.1353    47.249708    20.187944     20.76992            0            0            0    19811.895      2999.64    4183.4253    2699.3408   -318.49366   -262.42314    -708.5531 
  203000    228.91396    -10806.38   -9775.3505    -10806.38            0    2423.3405    47.697665    20.187944     20.76992            0            0            0    19999.725    1867.9776    2336.6607    3065.3832    207.90838   -352.10866    299.52629 
  203500    227.36729    -10760.53   -9736.4666    -10760.53            0    3139.4965    47.150997    20.187944     20.76992            0            0            0    19770.506     3300.027    2890.4726      3227.99    62.974004   -262.96601    -714.8664 
  204000    229.13627   -10821.702   -9789.6717   -10821.702            0    2000.9157    47.503302    20.187944     20.76992            0            0            0    19918.228     2350.688    1155.0379    2497.0213    261.14004   -335.11916   -412.44389 
  204500    234.71254   -10793.476   -9736.3294   -10793.476            0    2600.7467    47.249873    20.187944     20.76992            0            0            0    19811.965    2626.5823    2692.9929     2482.665    304.73573    -55.94778    226.27249 
  205000    237.27459   -10772.447    -9703.761   -10772.447            0    2690.8578    47.492892    20.187944     20.76992            0            0            0    19913.863    2678.8717    2926.0265    2467.6752    20.208585    243.06721    1039.1521 
  205500    227.04047   -10797.183   -9774.5923   -10797.183            0    2513.9626    47.370801    20.187944     20.76992            0            0            0     19862.67    2964.9718    2310.9088    2266.0071   -399.70952   -95.842973    28.479934 
  206000    235.73977   -10781.448   -9719.6748   -10781.448            0    3417.7604    47.154134    20.187944     20.76992            0            0            0    19771.821    4410.4405    2760.2044    3082.6362    134.54484     192.8157   -38.974593 
  206500    231.01008   -10796.016   -9755.5462   -10796.016            0    3112.2901     47.12897    20.187944     20.76992            0            0            0     19761.27    4772.1496    1033.6858    3531.0349   -242.30471    553.29239     579.8029 
  207000     228.7625   -10760.517   -9730.1697   -10760.517            0    2196.7423    47.521928    20.187944     20.76992            0            0            0    19926.038    1374.3409    3053.9178    2161.9682     441.4516    450.50377   0.22349366 
  207500    230.72529   -10769.906   -9730.7185   -10769.906            0    3106.6203    47.100582    20.187944     20.76992            0            0            0    19749.366    3955.3593    2966.9588    2397.5428   -185.05773    331.31588    904.05596 
  208000    235.59259   -10803.052   -9741.9419   -10803.052            0    2545.8456    47.484587    20.187944     20.76992            0            0            0    19910.381    2606.9824      2556.17    2474.3845    517.06602   -137.10471     133.2201 
  208500    228.55727   -10829.572    -9800.149   -10829.572            0    2404.8622    47.395989    20.187944     20.76992            0            0            0    19873.231    3121.0717    2108.4977    1985.0172   -1.5937669   -896.51251    430.58754 
  209000    226.22277   -10822.647   -9803.7387   -10822.647            0    2415.6796    47.471813    20.187944     20.76992            0            0            0    19905.025    3070.6159    2179.7301    1996.6928    122.42048   -490.06151    60.264535 
  209500    222.08039   -10828.003   -9827.7525   -10828.003            0    2016.1069    47.516799    20.187944     20.76992            0            0            0    19923.887    2182.0512    1579.4721    2286.7974    578.55945    354.22015   -123.38101 
  210000    223.21017   -10850.436   -9845.0962   -10850.436            0    2720.1582    47.599817    20.187944     20.76992            0            0            0    19958.697    2760.3416    2055.7405    3344.3924    311.70659   -32.126091    227.65298 
  210500    231.70055   -10817.839   -9774.2588   -10817.839            0    3163.1668    47.489007    20.187944     20.76992            0            0            0    19912.234    2874.6591    2894.3724    3720.4688    74.063061     778.5641   -214.61815 
  211000    225.06354   -10816.056   -9802.3686   -10816.056            0    2420.5941    47.411716    20.187944     20.76992            0            0            0    19879.826    1931.8284    1814.7997    3515.1543    171.62651   -170.19213    194.12947 
  211500    225.65247   -10777.333   -9760.9934   -10777.333            0    3493.2287    47.304654    20.187944     20.76992            0            0            0    19834.934    4474.3254    2315.5224    3689.8385     304.4612    808.79412    -465.2872 
  212000    233.20902   -10831.845   -9781.4702   -10831.845            0     3221.717    47.350686    20.187944     20.76992            0            0            0    19854.236    3849.4248    2955.0129    2860.7132    373.47687   -565.94471    34.162647 
  212500    229.79578   -10832.038   -9797.0364   -10832.038            0    2489.7208    47.553228    20.187944     20.76992            0            0            0    19939.162    3006.1291    2364.6673    2098.3659    90.262847   -11.404944    330.07968 
  213000    231.48653   -10780.132   -9737.5162   -10780.132            0    2292.7299    47.394025    20.187944     20.76992            0            0            0    19872.408    2526.3082    1649.5013    2702.3801    -70.24039   -523.62224   -195.37084 
  213500    221.42376   -10764.894   -9767.6004   -10764.894            0    2499.4021    47.696937    20.187944     20.76992            0            0            0    19999.419    2956.9469    2013.3009    2527.9585    23.702513   -524.28091   -22.777254 
  214000    228.57557   -10827.826   -9798.3205   -10827.826            0    2706.4029    47.442647    20.187944     20.76992            0            0            0    19892.795    3576.1575    1528.0085    3015.0426    380.55215   -55.759795   -1374.3819 
  214500     237.8179   -10808.392   -9737.2589   -10808.392            0    2907.6277    47.706493    20.187944     20.76992            0            0            0    20003.426    2639.1041    3634.8053    2448.9738    190.21532   -165.45016    561.48887 
  215000    226.80692   -10819.477   -9797.9374   -10819.477            0    3495.4026    47.374504    20.187944     20.76992            0            0            0    19864.223    4888.2447    2246.0105    3351.9525    -366.4228   -609.45128   -308.10179 
  215500    229.21948   -10839.223   -9806.8173   -10839.223            0    2418.2051    47.460431    20.187944     20.76992            0            0            0    19900.252    2873.3528    1884.9328    2496.3296   -573.57995   -409.91724    612.81319 
  216000     219.7821   -10805.425   -9815.5254   -10805.425            0    2574.3569    47.598302    20.187944     20.76992            0            0            0    19958.062    2452.8515    2292.3664    2977.8529    456.17776    -173.6879    331.78724 
  216500     235.6699   -10802.151   -9740.6925   -10802.151            0    3438.6723    47.098928    20.187944     20.76992            0            0            0    19748.673     3684.614    3405.3753    3226.0277   -72.699032    -470.8642    171.68497 
  217000    230.35021   -10817.498   -9779.9996   -10817.498            0    1416.3167    47.749683    20.187944     20.76992            0            0            0    20021.536      1120.11    818.46101    2310.3791    615.31126   -824.35967    408.45091 
  217500    231.72179   -10817.027    -9773.351   -10817.027            0    2385.4098    47.369659    20.187944     20.76992            0            0            0    19862.191    3422.4083     1645.528    2088.2929   -317.17905   -519.04254    733.02603 
  218000    231.21715   -10814.374   -9772.9715   -10814.374            0    2679.5136    47.624122    20.187944     20.76992            0            0            0    19968.888    2216.1321     2608.924    3213.4848   -97.008426   -408.66347    343.38227 
  218500    233.01962   -10802.928   -9753.4069   -10802.928            0    3378.6451    47.358274    20.187944     20.76992            0            0            0    19857.417     3271.944    2905.7394     3958.252    101.22224    380.67558   -68.010872 
  219000    225.04973    -10820.25   -9806.6246    -10820.25            0    2854.4864    47.576225    20.187944     20.76992            0            0            0    19948.805    3464.4891    2550.2848    2548.6851     -185.597     136.6295   -98.100556 
  219500    223.92394    -10815.67   -9807.1152    -10815.67            0      2312.96    47.496704    20.187944     20.76992            0            0            0    19915.461     2642.847    1597.4385    2698.5945    250.49032   -680.83078    -557.3216 
  220000    222.82659   -10844.165    -9840.553   -10844.165            0    2878.9342    47.304844    20.187944     20.76992            0            0            0    19835.014    3228.0745     2325.212    3083.5162    183.05358   -101.08886    64.007443 
  220500    223.69799   -10816.375    -9808.838   -10816.375            0    1363.4411    47.652055    20.187944     20.76992            0            0            0    19980.601    1732.5918    896.37839    1461.3532     326.5484    253.94968   -108.13541 
  221000    230.07737   -10805.253   -9768.9838   -10805.253            0    2748.8588    47.377044    20.187944     20.76992            0            0            0    19865.288     2677.814    2917.2864     2651.476    128.65992    225.10193   -496.80027 
  221500     235.0596   -10830.002   -9771.2929   -10830.002            0    2299.8959    47.663245    20.187944     20.76992            0            0            0    19985.292    2249.8182    2348.3495      2301.52   -39.073872    243.13225   -133.05064 
  222000    227.30165   -10803.692   -9779.9245   -10803.692            0    3215.5483    47.206785    20.187944     20.76992            0            0            0    19793.898    3575.3939    3286.2864    2784.9646   -672.71885     288.7333   -53.396784 
  222500    236.47664   -10807.147   -9742.0555   -10807.147            0    2399.9468    47.653878    20.187944     20.76992            0            0            0    19981.365    3245.8451    1974.4883    1979.5068    192.21662   -95.545703   -1.0074491 
  223000    231.21113   -10832.907    -9791.531   -10832.907            0    2940.1789    47.458488    20.187944     20.76992            0            0            0    19899.437    3263.0838    2328.4616    3228.9914   -219.55285    363.35189    523.56958 
  223500     229.4521   -10797.132   -9763.6786   -10797.132            0    2784.4142    47.223017    20.187944     20.76992            0            0            0    19800.704    3212.9173    2414.5825    2725.7428   -349.58015   -7.1279737    426.03995 
  224000    237.48069   -10816.719   -9747.1054   -10816.719            0    2711.9775    47.630348    20.187944     20.76992            0            0            0    19971.498    1660.0399    3915.0331    2560.8594   -71.299094   -203.56998    876.48865 
  224500     239.4282   -10764.171   -9685.7854   -10764.171            0     4052.868     47.26577    20.187944     20.76992            0            0            0     19818.63    5164.6097    2602.5586    4391.4357    96.275123   -140.03828   -783.12046 
  225000    237.41334   -10798.235   -9728.9245   -10798.235            0    2873.9936    47.448161    20.187944     20.76992            0            0            0    19895.107    1804.1336     3655.093    3162.7542    152.51036   -86.243454   -336.13747 
  225500    223.73824   -10801.652   -9793.9337   -10801.652            0    2650.8109    47.475787    20.187944     20.76992            0            0            0    19906.691    2782.0791    2784.5445    2385.8091    351.76904    270.84989   -460.12075 
  226000    229.60784   -10788.966   -9754.8109   -10788.966            0    2610.4966    47.261598    20.187944     20.76992            0            0            0    19816.881     2963.493    2342.8726    2525.1243   -117.06625   -176.27948    42.761025 
  226500    228.28647   -10807.862   -9779.6585   -10807.862            0    3067.0525    47.425595    20.187944     20.76992            0            0            0    19885.645    3744.3075    2298.0068    3158.8434    143.89967   -236.57151    91.965839 
  227000    224.91743   -10832.657    -9819.628   -10832.657            0    2556.1249    47.498144    20.187944     20.76992            0            0            0    19916.065    3381.5847    1625.2005    2661.5895   -43.895394    40.292506    573.29187 
  227500      233.584    -10778.15   -9726.0871    -10778.15            0    3381.9121    47.388387    20.187944     20.76992            0            0            0    19870.044    3726.2212    2348.9643    4070.5509    298.39768     -860.114    443.72446 
  228000    229.47745    -10836.72   -9803.1524    -10836.72            0    2106.4109    47.593574    20.187944     20.76992            0            0            0    19956.079    1769.3403    1551.5674     2998.325   -211.29611    95.786826     1281.478 
  228500    235.18076   -10839.721   -9780.4664   -10839.721            0    3109.3334    47.345484    20.187944     20.76992            0            0            0    19852.055    3938.8849    3372.7115    2016.4037    578.03282   -493.60984    80.989371 
  229000    232.94735   -10789.518   -9740.3221   -10789.518            0    3243.5409    47.300469    20.187944     20.76992            0            0            0     19833.18    3298.9409    2742.3141    3689.3678   -308.43428    334.78197   -179.96587 
  229500    223.95678     -10838.6   -9829.8976     -10838.6            0    2285.6203    47.475596    20.187944     20.76992            0            0            0    19906.611    2584.6781    2076.7765    2195.4065    238.65898   -188.40896   -474.97154 
  230000    230.54074   -10805.736   -9767.3795   -10805.736            0    3460.0371    47.228061    20.187944     20.76992            0            0            0    19802.819    2597.1178     3457.051    4325.9425   -15.908213   -691.52161    1233.8879 
  230500    227.33772   -10839.924    -9815.994   -10839.924            0    2631.6278    47.508808    20.187944     20.76992            0            0            0    19920.536    2650.4458    2686.5444    2557.8931   -694.81988   -234.22994   -131.18186 
  231000    236.03703   -10776.465    -9713.353   -10776.465            0     3109.527    47.399158    20.187944     20.76992            0            0            0     19874.56    3438.3425    2991.8586    2898.3799    483.64314   -605.91899   -39.794679 
  231500    226.90639   -10808.821   -9786.8335   -10808.821            0    2638.3553    47.469527    20.187944     20.76992            0            0            0    19904.066    3279.4467    2425.9163    2209.7029    187.90227   -18.777878    236.86897 
  232000    230.82455   -10847.779   -9808.1444   -10847.779            0    2940.8471     47.37423    20.187944     20.76992            0            0            0    19864.108    3474.8548    1907.8522    3439.8345    373.11076    60.682226   -559.28075 
  232500    235.30911   -10846.023   -9786.1901   -10846.023            0    3359.0691    47.254035    20.187944     20.76992            0            0            0     19813.71    3136.5421    3613.7052    3326.9598   -165.93734   -584.29367   -326.86807 
  233000    234.23011   -10843.432   -9788.4584   -10843.432            0    2777.1571    47.325639    20.187944     20.76992            0            0            0    19843.733    2436.2323    2959.8857    2935.3534    595.15063    755.05698    231.05502 
  233500    234.75526    -10807.86   -9750.5213    -10807.86            0    4085.1969    47.295615    20.187944     20.76992            0            0            0    19831.145    5168.2451    2517.7899    4569.5557   -305.13167    247.60654    121.66483 
  234000    238.11151   -10832.333    -9759.878   -10832.333            0    2972.3848     47.51191    20.187944     20.76992            0            0            0    19921.837    2331.1566    3397.2136    3188.7843   -539.96717    78.321968     28.64878 
  234500    235.53412   -10811.028    -9750.181   -10811.028            0    2866.3567    47.333564    20.187944     20.76992            0            0            0    19847.056    2578.3501       3029.2      2991.52   -112.77646    118.50734    446.95527 
  235000    226.12305   -10825.448   -9806.9887   -10825.448            0    3484.3276    47.486734    20.187944     20.76992            0            0            0    19911.281    2163.5006    4574.4545    3715.0276     130.7795    112.84157    -26.58625 
  235500    225.49708   -10837.852   -9822.2124   -10837.852            0    3107.3691    47.478671    20.187944     20.76992            0            0            0      19907.9    1959.9975    3128.4013    4233.7085    37.168114    56.734911    777.00955 
  236000    220.86379    -10806.46   -9811.6882    -10806.46            0    3226.5954    47.389706    20.187944     20.76992            0            0            0    19870.597    3674.1527    2437.6146    3568.0189    210.04725   -922.13046   -350.25806 
  236500    234.61244   -10806.277    -9749.582   -10806.277            0    3202.0898    47.178529    20.187944     20.76992            0            0            0     19782.05      2468.38     4182.336    2955.5534   -236.35238   -1290.4198   -146.95416 
  237000    237.91016   -10835.575   -9764.0265   -10835.575            0    2985.7787    47.506298    20.187944     20.76992            0            0            0    19919.484    3884.7095    2264.9303    2807.6962    185.87076    243.92058    112.66607 
  237500    221.03375   -10820.579    -9825.042   -10820.579            0    2250.8128    47.109074    20.187944     20.76992            0            0            0    19752.927    2259.4967    2087.6874    2405.2542   -275.69001    158.73788    1497.0122 
  238000    240.84681   -10800.588   -9715.8128   -10800.588            0    2948.4086    47.420963    20.187944     20.76992            0            0            0    19883.703    2632.4631    2919.4619    3293.3008   -462.78329    -86.31103    1002.5354 
  238500    219.82517   -10806.324    -9816.231   -10806.324            0    2380.9477     47.41094    20.187944     20.76992            0            0            0      19879.5    1997.5472    2603.4106    2541.8853    52.966786   -584.12369    190.72475 
  239000    234.55293   -10791.743   -9735.3157   -10791.743            0    3379.1792    47.341057    20.187944     20.76992            0            0            0    19850.198    2889.4783     2808.822    4439.2371   -87.566608    341.39796    651.55152 
  239500    225.85543   -10842.193   -9824.9391   -10842.193            0    2832.2228    47.367941    20.187944     20.76992            0            0            0    19861.471     2991.196    2724.1453    2781.3271    526.02803    211.10574   -19.260576 
  240000    226.28365   -10856.159   -9836.9764   -10856.159            0    3919.1217    47.194723    20.187944     20.76992            0            0            0     19788.84    4212.5885    3436.6456     4108.131    408.81512   -90.474255    28.638556 
  240500    231.41899   -10847.008   -9804.6958   -10847.008            0    1823.9928    47.753353    20.187944     20.76992            0            0            0    20023.075     1363.579    2228.6702    1879.7292    421.63919    677.58034    1097.1779 
  241000     236.9867   -10812.449   -9745.0601   -10812.449            0    3794.6428    47.078781    20.187944     20.76992            0            0            0    19740.226    5147.6746    2728.9625    3507.2911    691.28974   -250.99638    289.01576 
  241500    230.95179   -10786.552    -9746.344   -10786.552            0    3249.6457    47.287198    20.187944     20.76992            0            0            0    19827.615    2566.2999    3860.7837    3321.8534    215.75466    1219.4016    1075.1382 
  242000    231.18171   -10865.813   -9824.5695   -10865.813            0     2608.574     47.50503    20.187944     20.76992            0            0            0    19918.953    2677.0887    2546.2649    2602.3684    711.54155    73.173325   -173.53809 
  242500    235.54354   -10865.292   -9804.4025   -10865.292            0    3575.3776    47.124478    20.187944     20.76992            0            0            0    19759.386    4462.7118    3184.1185    3079.3026    800.58911   -31.657455    -784.4437 
  243000    230.91949   -10868.966   -9828.9035   -10868.966            0    3449.3832    47.540293    20.187944     20.76992            0            0            0    19933.738    3488.1829    3070.5377    3789.4289    1007.4282   -70.191417    56.414688 
  243500    232.04773   -10825.071   -9779.9274   -10825.071            0     2840.416    47.418935    20.187944     20.76992            0            0            0    19882.853    2944.3733    2694.6698    2882.2047    600.08891    936.32423    364.94551 
  244000    222.52204   -10843.371   -9841.1312   -10843.371            0    2468.5132    47.638684    20.187944     20.76992            0            0            0    19974.994    2061.3982     2388.986    2955.1554    262.72562   -205.97689   -156.11035 
  244500    226.32664   -10840.642   -9821.2654   -10840.642            0    3277.4272    47.256299    20.187944     20.76992            0            0            0    19814.659    3481.2326    3015.9688    3335.0802    265.35554    164.45029    -327.6047 
  245000    225.74438   -10839.103    -9822.349   -10839.103            0    2794.6867    47.577111    20.187944     20.76992            0            0            0    19949.176    1919.7133    2825.4202    3638.9266    106.46331   -364.95203    424.35208 
  245500    227.38557   -10835.557   -9811.4116   -10835.557            0    3025.5017    47.507144    20.187944     20.76992            0            0            0    19919.839    3404.8566    2971.5814    2700.0671    241.83519     782.7145   -559.01132 
  246000    227.81155   -10842.773   -9816.7091   -10842.773            0    2700.4996    47.453669    20.187944     20.76992            0            0            0    19897.417    3081.7091    2530.9092    2488.8804    390.16069    1126.8077   -456.29958 
  246500     225.0596   -10824.191   -9810.5218   -10824.191            0    2598.4215    47.464249    20.187944     20.76992            0            0            0    19901.853    3818.2064    1186.4989    2790.5591    185.50979   -75.746337    102.75886 
  247000     241.1437   -10814.412   -9728.2997   -10814.412            0    4124.1726    47.382433    20.187944     20.76992            0            0            0    19867.547    4949.1684    3788.6123    3634.7373   -319.04011    352.08362    239.58921 
  247500    220.56207   -10845.022   -9851.6096   -10845.022            0    1818.5817    47.683217    20.187944     20.76992            0            0            0    19993.667    1926.0498    937.00376    2592.6915    1044.0646     639.6541    1020.6346 
  248000    227.39985   -10865.931   -9841.7207   -10865.931            0    2141.2697    47.351226    20.187944     20.76992            0            0            0    19854.462    2718.5211    319.52118    3385.7667   -337.64965   -142.22325   -172.14563 
  248500    240.68648   -10839.941   -9755.8883   -10839.941            0    2703.2435    47.377051    20.187944     20.76992            0            0            0     19865.29    2803.2223    2828.9316    2477.5767   -118.11389      157.333    513.34592 
  249000    235.31431   -10861.707   -9801.8508   -10861.707            0    3245.7789    47.559794    20.187944     20.76992            0            0            0    19941.915    4651.7033    2419.5965    2666.0371    178.49541    912.63271   -419.18969 
  249500    230.53351   -10829.703   -9791.3793   -10829.703            0    3442.0812    47.288361    20.187944     20.76992            0            0            0    19828.103    5151.3321    1914.4442    3260.4674    232.38913    1177.8783     98.86508 
  250000     231.8634   -10809.052   -9764.7379   -10809.052            0    2854.5059    47.661767    20.187944     20.76992            0            0            0    19984.673    2761.4844    3458.4454    2343.5878   -233.38809    629.99762   -72.796053 
  250500    233.84747   -10869.024   -9815.7738   -10869.024            0    2762.0634    47.313916    20.187944     20.76992            0            0            0    19838.818    2854.2235    2225.4596     3206.507    375.17418   -482.20269    139.40165 
  251000     225.0964   -10835.967   -9822.1319   -10835.967            0    3011.4828    47.418084    20.187944     20.76992            0            0            0    19882.496    3106.5515    2592.8415    3335.0556   -206.07666   -128.93458    228.42545 
  251500    219.71712    -10887.11   -9897.5032    -10887.11            0    3622.8003     47.27205    20.187944     20.76992            0            0            0    19821.264     3693.195    3178.1137    3997.0921    389.43305    516.26356    18.851047 
  252000    225.02307   -10893.671   -9880.1659   -10893.671            0     2588.531    47.367419    20.187944     20.76992            0            0            0    19861.252    3549.8289    1851.5245    2364.2396    158.29759   -559.27897    652.26378 
  252500    226.99334   -10836.409   -9814.0306   -10836.409            0    2364.7409    47.619636    20.187944     20.76992            0            0            0    19967.007     1899.908    2500.0012    2694.3134    395.12965     22.22343   -193.33131 
  253000    239.70517    -10836.41   -9756.7774    -10836.41            0    3534.6521    47.452077    20.187944     20.76992            0            0            0    19896.749    4417.3818    2841.5067    3345.0678   -6.4187004    752.45446   -250.05872 
  253500    228.48766   -10884.023   -9854.9139   -10884.023            0    3464.2094    47.524718    20.187944     20.76992            0            0            0    19927.208    4902.1867    2268.2889    3222.1524    26.717305    258.70372   -58.787892 
  254000    223.55888   -10846.393   -9839.4827   -10846.393            0    3284.8243    47.436518    20.187944     20.76992            0            0            0    19890.225    3379.6991    3564.8129    2909.9608   -265.59844   -329.39579    705.38735 
  254500    229.57117   -10827.401   -9793.4112   -10827.401            0    2348.1625    47.446987    20.187944     20.76992            0            0            0    19894.615     3848.468    1092.0028    2104.0165   -107.18862    575.76402   -30.681197 
  255000    226.90417   -10830.778   -9808.8002   -10830.778            0    3844.7641    47.431551    20.187944     20.76992            0            0            0    19888.143    2671.8683    5054.7752    3807.6486   -11.601848    156.65365   -372.80972 
  255500    237.34242    -10871.77   -9802.7791    -10871.77            0    2455.4357    47.530937    20.187944     20.76992            0            0            0    19929.815     2320.094    1528.4547    3517.7583   -24.612956   -388.99956    299.80772 
  256000    230.45293   -10837.339   -9799.3778   -10837.339            0    2548.1181    47.491573    20.187944     20.76992            0            0            0     19913.31    2224.7585    2413.4454    3006.1505   -226.87613    244.31079   -26.690438 
  256500    224.10045   -10821.551   -9812.2012   -10821.551            0    3668.0638    47.173614    20.187944     20.76992            0            0            0    19779.989    3625.6526    4136.6845    3241.8544   -1005.5506    687.86138   -106.95249 
  257000    226.62469    -10820.08   -9799.3614    -10820.08            0    2439.2286    47.746473    20.187944     20.76992            0            0            0     20020.19    2241.7534    2503.4562    2572.4764      279.045     429.0487   -110.07668 
  257500    232.68371   -10759.334   -9711.3255   -10759.334            0    2923.7314    47.360447    20.187944     20.76992            0            0            0    19858.329    2908.0673    2605.4197    3257.7072    142.53565   -436.17586    912.92021 
  258000    231.09212   -10842.543   -9801.7027   -10842.543            0    3093.5503    47.498318    20.187944     20.76992            0            0            0    19916.138    3798.3911    2036.4295    3445.8303   -245.12357    63.524736   -641.95728 
  258500    231.03746   -10816.079   -9775.4858   -10816.079            0    3436.7114    47.226245    20.187944     20.76992            0            0            0    19802.057    3852.9218    3256.8787    3200.3338   -419.41344    869.69488    232.66256 
  259000    234.91058   -10789.536   -9731.4981   -10789.536            0    2848.4322    47.680228    20.187944     20.76992            0            0            0    19992.414    1949.2184      3265.44    3330.6382   -686.34285    1656.9769   -60.482536 
  259500    225.16244   -10804.963   -9790.8307   -10804.963            0    3986.8152    47.066443    20.187944     20.76992            0            0            0    19735.052    4830.0272    2890.1202    4240.2981   -669.00898   -483.60465    785.40377 
  260000    233.10961   -10838.352   -9788.4249   -10838.352            0    2170.0959     47.19762    20.187944     20.76992            0            0            0    19790.055    1742.3051    1825.2203    2942.7622   -273.11112     51.93933    117.44356 
  260500    235.24592   -10783.271   -9723.7221   -10783.271            0    2907.4707    47.338472    20.187944     20.76992            0            0            0    19849.114    3623.8794    2463.8585    2634.6743    209.56225   -274.06078   -25.036358 
  261000    234.47925   -10798.773   -9742.6779   -10798.773            0    2680.3386    47.106569    20.187944     20.76992            0            0            0    19751.877    2665.9937    1851.0839    3523.9382    183.82834    71.954828   -214.27177 
  261500    231.96106    -10840.64   -9795.8861    -10840.64            0    3336.6368    47.271906    20.187944     20.76992            0            0            0    19821.203    3234.6307    3239.4291    3535.8506    618.94722    299.91906     -70.9821 
  262000    229.33865   -10810.656   -9777.7141   -10810.656            0    3735.2143    47.050518    20.187944     20.76992            0            0            0    19728.375     5223.007    1988.0685    3994.5674    16.841987    766.71099    153.64975 
  262500    230.74632    -10796.97   -9757.6878    -10796.97            0    2284.2026    47.594748    20.187944     20.76992            0            0            0    19956.571    2451.7868    1601.9632    2798.8578    433.25745    456.58898    203.86865 
  263000    234.00116   -10792.513   -9738.5713   -10792.513            0    4186.9253    46.887938    20.187944     20.76992            0            0            0    19660.205    5933.6861    2735.9316    3891.1583    767.40128     132.7689   -118.18297 
  263500    229.25363   -10818.215   -9785.6562   -10818.215            0     3794.589    47.339634    20.187944     20.76992            0            0            0    19849.602    3153.3299    3554.6551    4675.7819     114.4991   -59.617919    812.09546 
  264000    219.14274   -10839.625   -9852.6052   -10839.625            0    2845.0821    47.203209    20.187944     20.76992            0            0            0    19792.398    3289.3107    2248.8847    2997.0508    39.294198   -366.43172    622.85746 
  264500     224.6533   -10826.255    -9814.416   -10826.255            0     2904.793    47.371717    20.187944     20.76992            0            0            0    19863.054    2911.6888    2471.8556    3330.8347   -2.1807616    363.59498    175.54235 
  265000    228.82202   -10840.708   -9810.0923   -10840.708            0    3585.4537    47.179147    20.187944     20.76992            0            0            0    19782.309    2582.8592    4327.3514    3846.1505    554.04034    87.619494    1157.7459 
  265500    238.44402   -10837.081   -9763.1277   -10837.081            0    2286.2585    47.411128    20.187944     20.76992            0            0            0    19879.579    3368.3715    766.08749    2724.3165    555.12161    45.162925    237.05706 
  266000    227.12639   -10805.413    -9782.435   -10805.413            0    3691.2869    46.967186    20.187944     20.76992            0            0            0    19693.433    3849.0802    3528.2699    3696.5107    71.481173    236.11775    417.31964 
  266500    228.69445   -10845.412   -9815.3717   -10845.412            0    2259.5141    47.402956    20.187944     20.76992            0            0            0    19876.153    1987.3234     2038.503    2752.7158    539.41615   -612.19474    377.75427 
  267000    225.59809   -10822.634   -9806.5388   -10822.634            0    3042.4601    47.147004    20.187944     20.76992            0            0            0    19768.831    3537.1234    3041.0945    2549.1625    349.14704   -1204.2503    487.25765 
  267500    230.16781   -10819.269   -9782.5926   -10819.269            0    3250.7493     47.39718    20.187944     20.76992            0            0            0    19873.731     2924.066    2919.5629    3908.6188     218.7343   -1229.9069    289.64383 
  268000    230.44072   -10805.103   -9767.1972   -10805.103            0    3414.7161    47.106473    20.187944     20.76992            0            0            0    19751.837    2535.1588    4125.8158    3583.1737     -196.084   -234.82892    790.53386 
  268500    229.54002   -10825.559   -9791.7103   -10825.559            0    1743.2508    47.404619    20.187944     20.76992            0            0            0     19876.85     1192.982    1230.6099    2806.1604   -62.914067   -74.263672    223.75419 
  269000    222.38927   -10814.845   -9813.2024   -10814.845            0     3284.783    47.115406    20.187944     20.76992            0            0            0    19755.583    4007.3255     3283.937    2563.0863    217.19476   -408.28589    263.52666 
  269500    233.37026   -10842.632   -9791.5319   -10842.632            0    3505.3637    47.388095    20.187944     20.76992            0            0            0    19869.921    3202.7674    3766.1597    3547.1641    82.005111   -650.99954    853.46979 
  270000    227.15528   -10839.108   -9815.9993   -10839.108            0    3564.9271    47.116367    20.187944     20.76992            0            0            0    19755.985    3923.4451    3724.6938    3046.6425   -419.16106   -179.32601    368.14912 
  270500    232.05095   -10835.513    -9790.355   -10835.513            0    2678.6979    47.522593    20.187944     20.76992            0            0            0    19926.317    2120.8746    2721.1555    3194.0638   -335.14259    -44.20407    1102.4405 
  271000    230.43186   -10830.611   -9792.7448   -10830.611            0    3255.7027    47.041799    20.187944     20.76992            0            0            0    19724.719    3427.0319    4088.5567    2251.5195     78.78547    526.84828   -66.793398 
  271500    224.37943   -10813.012   -9802.4058   -10813.012            0    2701.3634    47.517918    20.187944     20.76992            0            0            0    19924.356    2664.8789    2525.2974    2913.9141    234.13205    538.60389    976.20135 
  272000    231.00109   -10833.481    -9793.051   -10833.481            0    3768.6585    47.044971    20.187944     20.76992            0            0            0    19726.049    3287.1774    4150.5773    3868.2206    319.54047   -10.647492    1238.1063 
  272500     222.8567   -10812.497   -9808.7491   -10812.497            0    3332.2441     47.29317    20.187944     20.76992            0            0            0    19830.119     3960.006    2905.2119    3131.5144   -329.60379   -442.73559   -64.892527 
  273000     230.5195   -10869.946   -9831.6855   -10869.946            0    3008.8053    47.399029    20.187944     20.76992            0            0            0    19874.506    2023.4799    4494.2032    2508.7327    -509.1741    -339.5901     338.1326 
  273500     218.6911   -10832.417   -9847.4311   -10832.417            0    1880.3536    47.404614    20.187944     20.76992            0            0            0    19876.848    1235.6524    2398.8475    2006.5609   -26.713276     667.2509    812.80661 
  274000    230.29806   -10823.384   -9786.1209   -10823.384            0    2759.6549    47.314033    20.187944     20.76992            0            0            0    19838.867    3512.5711    2423.1293    2343.2643    197.21975    148.66306     702.6431 
  274500    241.12185   -10830.906    -9744.892   -10830.906            0    2326.6738    47.604189    20.187944     20.76992            0            0            0     19960.53    1941.2817    3110.6048    1928.1349   -175.20949    94.093943   -435.07535 
  275000    228.12982   -10844.089   -9816.5912   -10844.089            0    2728.4131    47.450699    20.187944     20.76992            0            0            0    19896.172    2367.1857    2555.0453    3263.0084   -307.84505    337.78392    324.16745 
Loop time of 274.274 on 32 procs for 100000 steps with 2268 atoms

Performance: 31.501 ns/day, 0.762 hours/ns, 364.599 timesteps/s
99.2% CPU use with 32 MPI tasks x 1 OpenMP threads

MPI task timing breakdown:
Section |  min time  |  avg time  |  max time  |%varavg| %total
---------------------------------------------------------------
Pair    | 48.253     | 55.657     | 63.887     |  61.8 | 20.29
Bond    | 0.11373    | 0.12238    | 0.12743    |   0.8 |  0.04
Kspace  | 121.13     | 129.67     | 137.34     |  41.0 | 47.28
Neigh   | 1.9466     | 1.9828     | 2.0121     |   1.3 |  0.72
Comm    | 29.717     | 31.356     | 32.826     |  13.8 | 11.43
Output  | 0.60265    | 0.60377    | 0.60799    |   0.1 |  0.22
Modify  | 42.113     | 47.211     | 52.65      |  45.6 | 17.21
Other   |            | 7.671      |            |       |  2.80

Nlocal:        70.8750 ave          78 max          64 min
Histogram: 4 2 3 3 2 7 1 7 1 2
Nghost:        3112.38 ave        3178 max        3055 min
Histogram: 1 2 7 2 9 2 2 3 2 2
Neighs:        21493.1 ave       25370 max       18456 min
Histogram: 2 6 5 4 2 1 4 4 1 3

Total # of neighbors = 687780
Ave neighs/atom = 303.25397
Ave special neighs/atom = 2.0000000
Neighbor list builds = 2402
Dangerous builds = 0

write_restart   restart.equil
System init for write_restart ...
PPPM initialization ...
  extracting TIP4P info from pair style
  using 12-bit tables for long-range coulomb (../kspace.cpp:340)
  G vector (1/distance) = 0.37232857
  grid = 48 27 27
  stencil order = 5
  estimated absolute RMS force accuracy = 0.0033795137
  estimated relative force accuracy = 1.0177305e-05
  using double precision FFTW3
  3d grid and FFT values/proc = 6292 1344
Last active /omp style is kspace_style pppm/tip4p/omp
write_data   	water.data.equil
System init for write_data ...
PPPM initialization ...
  extracting TIP4P info from pair style
  using 12-bit tables for long-range coulomb (../kspace.cpp:340)
  G vector (1/distance) = 0.37232857
  grid = 48 27 27
  stencil order = 5
  estimated absolute RMS force accuracy = 0.0033795137
  estimated relative force accuracy = 1.0177305e-05
  using double precision FFTW3
  3d grid and FFT values/proc = 6292 1344
Last active /omp style is kspace_style pppm/tip4p/omp
WARNING: Not all mixed pair coeffs generated from mixing. Use write_data with 'pair ij' option to store all pair coeffs. (../write_data.cpp:312)
Total wall time: 0:12:33
